*SPEF "1481-1998"
*DESIGN "alarm_clock_top"
*DATE "Sat Aug 15 08:59:49 2026"
*VENDOR "Synopsys, Inc."
*PROGRAM "icc2 /home/vlsi/SynopsysTools/icc2/W-2024.09-SP1/linux64/nwtn/bin/icc2_exec"
*VERSION "W-2024.09-SP1 Oct 17, 2024"
*DESIGN_FLOW "ICC2 SPEF DR"
*DIVIDER /
*DELIMITER :
*BUS_DELIMITER [ ]
*T_UNIT 1 NS
*C_UNIT 1 FF
*R_UNIT 1 OHM
*L_UNIT 1 HENRY

// XY_UNIT 1 UM
// PARASITIC_TECH tlu_max at 125.000 degree

*NAME_MAP
*1 clock
*2 key[3]
*3 key[2]
*4 key[1]
*5 key[0]
*6 reset
*7 time_button
*8 alarm_button
*9 fastwatch
*10 ms_hour[7]
*11 ms_hour[6]
*12 ms_hour[5]
*13 ms_hour[4]
*14 ms_hour[3]
*15 ms_hour[2]
*16 ms_hour[1]
*17 ms_hour[0]
*18 ls_hour[7]
*19 ls_hour[6]
*20 ls_hour[5]
*21 ls_hour[4]
*22 ls_hour[3]
*23 ls_hour[2]
*24 ls_hour[1]
*25 ls_hour[0]
*26 ms_minute[7]
*27 ms_minute[6]
*28 ms_minute[5]
*29 ms_minute[4]
*30 ms_minute[3]
*31 ms_minute[2]
*32 ms_minute[1]
*33 ms_minute[0]
*34 ls_minute[7]
*35 ls_minute[6]
*36 ls_minute[5]
*37 ls_minute[4]
*38 ls_minute[3]
*39 ls_minute[2]
*40 ls_minute[1]
*41 ls_minute[0]
*42 alarm_sound
*43 VDD
*44 VSS
*45 U110
*46 U112
*47 U113
*48 U114
*49 U115
*50 U116
*51 U117
*52 U118
*53 U119
*54 U120
*55 U121
*56 U122
*57 U123
*58 U124
*59 U125
*60 U126
*61 U127
*62 U128
*63 U129
*64 U130
*65 U131
*66 U132
*67 U133
*68 U134
*69 U135
*70 U136
*71 U137
*72 U138
*73 U139
*74 tgen1/ctmTdsLR_1_45
*75 U141
*76 U142
*77 U143
*78 tgen1/ctmTdsLR_1_46
*79 ctmTdsLR_1_41
*80 ctmTdsLR_2_42
*81 ctmTdsLR_3_43
*82 U149
*83 U150
*84 U151
*85 U152
*86 ctmTdsLR_4_44
*87 tgen1/ctmTdsLR_1_47
*88 U155
*89 U156
*90 U157
*91 U158
*92 U159
*93 U160
*94 U161
*95 U162
*96 U163
*97 U164
*98 U165
*99 U166
*100 U167
*101 U168
*102 U169
*103 U170
*104 tgen1/ctmTdsLR_1_48
*105 U172
*106 U173
*107 U174
*108 U175
*109 U176
*110 U177
*111 U178
*112 U179
*113 U180
*114 U181
*115 U182
*116 U183
*117 U184
*118 ZCTSBUF_2973_86
*119 HFSINV_107_3
*120 U79
*121 U81
*122 U83
*123 U85
*124 U87
*125 U89
*126 U91
*127 U93
*128 U95
*129 U97
*130 U99
*131 U101
*132 U103
*133 U105
*134 U107
*135 U109
*136 tgen1/count_reg[0]
*137 tgen1/count_reg[13]
*138 HFSBUF_2695_11
*139 tgen1/U4
*140 tgen1/U5
*141 tgen1/U6
*142 tgen1/U7
*143 tgen1/U8
*144 tgen1/U9
*145 tgen1/U10
*146 tgen1/U11
*147 tgen1/U12
*148 tgen1/U13
*149 tgen1/U14
*150 tgen1/U15
*151 tgen1/U16
*152 tgen1/U17
*153 tgen1/U18
*154 tgen1/U19
*155 tgen1/U20
*156 tgen1/U21
*157 tgen1/U22
*158 fsm1/HFSINV_1227_4
*159 tgen1/U24
*160 tgen1/U25
*161 tgen1/U26
*162 ZCTSBUF_479_87
*163 ctosc_gls_inst_192
*164 fsm1/ctmTdsLR_1_55
*165 fsm1/ctmTdsLR_1_56
*166 tgen1/ctmTdsLR_1_57
*167 ZBUF_324_inst_201
*168 ZBUF_91_inst_202
*169 fsm1/ctmTdsLR_1_35
*170 fsm1/ctmTdsLR_1_36
*171 ZBUF_597_inst_203
*172 ZBUF_1182_inst_204
*173 xofiller!SHFILL1_RVT!x57600y50000
*174 xofiller!SHFILL1_RVT!x77360y50000
*175 xofiller!SHFILL1_RVT!x78880y50000
*176 xofiller!SHFILL1_RVT!x80400y50000
*177 xofiller!SHFILL1_RVT!x81920y50000
*178 xofiller!SHFILL1_RVT!x91040y50000
*179 xofiller!SHFILL1_RVT!x92560y50000
*180 xofiller!SHFILL1_RVT!x94080y50000
*181 xofiller!SHFILL1_RVT!x95600y50000
*182 xofiller!SHFILL1_RVT!x314480y50000
*183 xofiller!SHFILL1_RVT!x316000y50000
*184 xofiller!SHFILL1_RVT!x325120y50000
*185 xofiller!SHFILL1_RVT!x326640y50000
*186 xofiller!SHFILL1_RVT!x328160y50000
*187 xofiller!SHFILL1_RVT!x329680y50000
*188 xofiller!SHFILL1_RVT!x331200y50000
*189 xofiller!SHFILL1_RVT!x355520y50000
*190 xofiller!SHFILL1_RVT!x357040y50000
*191 xofiller!SHFILL1_RVT!x401120y50000
*192 xofiller!SHFILL1_RVT!x420880y50000
*193 xofiller!SHFILL1_RVT!x440640y50000
*194 xofiller!SHFILL1_RVT!x442160y50000
*195 xofiller!SHFILL1_RVT!x451280y50000
*196 xofiller!SHFILL1_RVT!x452800y50000
*197 xofiller!SHFILL1_RVT!x461920y50000
*198 xofiller!SHFILL1_RVT!x463440y50000
*199 xofiller!SHFILL1_RVT!x464960y50000
*200 xofiller!SHFILL1_RVT!x466480y50000
*201 count1/ctmTdsLR_1_29
*202 count1/ctmTdsLR_2_30
*203 tgen1/U55
*204 tgen1/ctmTdsLR_1_25
*205 tgen1/ctmTdsLR_2_26
*206 count1/ctmTdsLR_1_31
*207 tgen1/U60
*208 tgen1/ctmTdsLR_1_27
*209 tgen1/ctmTdsLR_2_28
*210 count1/ctmTdsLR_1_32
*211 tgen1/U67
*212 tgen1/U68
*213 tgen1/U69
*214 tgen1/U70
*215 xofiller!SHFILL1_RVT!x468000y50000
*216 xofiller!SHFILL1_RVT!x50000y66720
*217 xofiller!SHFILL1_RVT!x51520y66720
*218 xofiller!SHFILL1_RVT!x53040y66720
*219 xofiller!SHFILL1_RVT!x54560y66720
*220 xofiller!SHFILL1_RVT!x56080y66720
*221 tgen1/U73
*222 tgen1/one_second_reg
*223 tgen1/count_reg[9]
*224 tgen1/one_minute_reg_reg
*225 tgen1/count_reg[2]
*226 tgen1/count_reg[7]
*227 tgen1/count_reg[6]
*228 tgen1/count_reg[5]
*229 tgen1/count_reg[10]
*230 tgen1/count_reg[11]
*231 tgen1/count_reg[4]
*232 tgen1/count_reg[1]
*233 tgen1/count_reg[8]
*234 tgen1/count_reg[3]
*235 tgen1/count_reg[12]
*236 count1/ctmTdsLR_2_33
*237 count1/current_time_ls_min_reg[1]
*238 count1/current_time_ls_min_reg[2]
*239 count1/current_time_ls_min_reg[3]
*240 count1/current_time_ms_min_reg[0]
*241 count1/current_time_ms_min_reg[1]
*242 count1/current_time_ms_min_reg[2]
*243 count1/current_time_ms_hr_reg[0]
*244 count1/current_time_ms_hr_reg[2]
*245 count1/current_time_ls_hr_reg[0]
*246 count1/current_time_ls_hr_reg[1]
*247 count1/current_time_ls_hr_reg[2]
*248 count1/current_time_ls_hr_reg[3]
*249 count1/current_time_ms_hr_reg[1]
*250 count1/current_time_ms_hr_reg[3]
*251 keyreg1/HFSBUF_810_5
*252 count1/U5
*253 count1/U6
*254 count1/U7
*255 count1/U8
*256 count1/U9
*257 count1/U10
*258 count1/U11
*259 count1/U12
*260 count1/U13
*261 count1/U14
*262 count1/U15
*263 count1/U16
*264 count1/U17
*265 tgen1/ctmTdsLR_1_34
*266 count1/U19
*267 count1/U20
*268 count1/U21
*269 count1/U22
*270 count1/U23
*271 ctmTdsLR_1_37
*272 count1/U25
*273 count1/U26
*274 ctmTdsLR_2_38
*275 count1/U29
*276 count1/U30
*277 count1/U31
*278 count1/U32
*279 count1/U33
*280 count1/U34
*281 count1/U35
*282 count1/U36
*283 count1/U37
*284 count1/U38
*285 count1/U39
*286 count1/U40
*287 count1/U41
*288 count1/U42
*289 count1/U43
*290 count1/U44
*291 count1/U45
*292 count1/U46
*293 count1/U47
*294 count1/U48
*295 count1/ctmTdsLR_1_40
*296 count1/U50
*297 tgen1/ctmTdsLR_1_49
*298 count1/U52
*299 count1/U53
*300 count1/U54
*301 count1/U55
*302 count1/U56
*303 count1/U57
*304 xofiller!SHFILL1_RVT!x57600y66720
*305 xofiller!SHFILL1_RVT!x59120y66720
*306 xofiller!SHFILL1_RVT!x60640y66720
*307 xofiller!SHFILL1_RVT!x62160y66720
*308 xofiller!SHFILL1_RVT!x63680y66720
*309 xofiller!SHFILL1_RVT!x65200y66720
*310 tgen1/ctmTdsLR_1_50
*311 tgen1/ctmTdsLR_1_51
*312 tgen1/ctmTdsLR_1_52
*313 count1/U64
*314 count1/U65
*315 count1/U66
*316 count1/U67
*317 count1/U68
*318 count1/U69
*319 count1/U70
*320 fsm1/ctmTdsLR_1_53
*321 count1/ctmTdsLR_1_54
*322 count1/U74
*323 count1/U75
*324 count1/U76
*325 count1/U77
*326 count1/U78
*327 count1/U79
*328 count1/U80
*329 count1/U81
*330 count1/U82
*331 count1/U83
*332 xofiller!SHFILL1_RVT!x66720y66720
*333 xofiller!SHFILL1_RVT!x68240y66720
*334 xofiller!SHFILL1_RVT!x69760y66720
*335 xofiller!SHFILL1_RVT!x71280y66720
*336 xofiller!SHFILL1_RVT!x72800y66720
*337 xofiller!SHFILL1_RVT!x74320y66720
*338 xofiller!SHFILL1_RVT!x75840y66720
*339 count1/current_time_ls_min_reg[0]
*340 count1/current_time_ms_min_reg[3]
*341 alreg1/HFSBUF_812_8
*342 xofiller!SHFILL1_RVT!x95600y66720
*343 xofiller!SHFILL1_RVT!x97120y66720
*344 alreg1/U4
*345 alreg1/U5
*346 alreg1/U6
*347 alreg1/U7
*348 alreg1/U8
*349 alreg1/U9
*350 alreg1/U10
*351 alreg1/U11
*352 alreg1/U12
*353 alreg1/U13
*354 alreg1/U14
*355 alreg1/U15
*356 alreg1/U16
*357 alreg1/U17
*358 alreg1/U18
*359 alreg1/U19
*360 alreg1/alarm_time_ms_min_reg[3]
*361 alreg1/alarm_time_ms_min_reg[2]
*362 alreg1/alarm_time_ms_min_reg[1]
*363 alreg1/alarm_time_ms_min_reg[0]
*364 alreg1/alarm_time_ms_hr_reg[3]
*365 alreg1/alarm_time_ms_hr_reg[2]
*366 alreg1/alarm_time_ms_hr_reg[1]
*367 alreg1/alarm_time_ms_hr_reg[0]
*368 alreg1/alarm_time_ls_min_reg[3]
*369 alreg1/alarm_time_ls_min_reg[2]
*370 alreg1/alarm_time_ls_min_reg[1]
*371 alreg1/alarm_time_ls_min_reg[0]
*372 alreg1/alarm_time_ls_hr_reg[3]
*373 alreg1/alarm_time_ls_hr_reg[2]
*374 alreg1/alarm_time_ls_hr_reg[1]
*375 alreg1/alarm_time_ls_hr_reg[0]
*376 keyreg1/HFSINV_841_6
*377 HFSINV_5240_15
*378 keyreg1/U4
*379 keyreg1/U5
*380 keyreg1/U6
*381 keyreg1/U7
*382 keyreg1/U8
*383 keyreg1/U9
*384 keyreg1/U10
*385 keyreg1/U11
*386 keyreg1/U12
*387 keyreg1/U13
*388 keyreg1/U14
*389 keyreg1/U15
*390 keyreg1/U16
*391 keyreg1/U17
*392 keyreg1/U18
*393 keyreg1/U19
*394 keyreg1/key_buffer_ms_min_reg[3]
*395 keyreg1/key_buffer_ms_min_reg[2]
*396 keyreg1/key_buffer_ms_min_reg[1]
*397 keyreg1/key_buffer_ms_min_reg[0]
*398 keyreg1/key_buffer_ms_hr_reg[3]
*399 keyreg1/key_buffer_ms_hr_reg[2]
*400 keyreg1/key_buffer_ms_hr_reg[1]
*401 keyreg1/key_buffer_ms_hr_reg[0]
*402 keyreg1/key_buffer_ls_hr_reg[3]
*403 keyreg1/key_buffer_ls_hr_reg[2]
*404 keyreg1/key_buffer_ls_hr_reg[1]
*405 keyreg1/key_buffer_ls_hr_reg[0]
*406 keyreg1/key_buffer_ls_min_reg[3]
*407 keyreg1/key_buffer_ls_min_reg[2]
*408 keyreg1/key_buffer_ls_min_reg[1]
*409 keyreg1/key_buffer_ls_min_reg[0]
*410 fsm1/pre_state_reg[0]
*411 fsm1/count2_reg[1]
*412 fsm1/count2_reg[2]
*413 fsm1/count2_reg[3]
*414 fsm1/pre_state_reg[2]
*415 fsm1/pre_state_reg[1]
*416 fsm1/count1_reg[1]
*417 fsm1/count1_reg[2]
*418 fsm1/count1_reg[3]
*419 fsm1/U3
*420 xofiller!SHFILL1_RVT!x98640y66720
*421 xofiller!SHFILL1_RVT!x100160y66720
*422 xofiller!SHFILL1_RVT!x101680y66720
*423 alreg1/HFSINV_828_9
*424 fsm1/U7
*425 fsm1/U8
*426 fsm1/U9
*427 fsm1/U10
*428 fsm1/U11
*429 fsm1/U12
*430 fsm1/U13
*431 fsm1/U14
*432 fsm1/U15
*433 fsm1/U16
*434 xofiller!SHFILL1_RVT!x103200y66720
*435 xofiller!SHFILL1_RVT!x104720y66720
*436 xofiller!SHFILL1_RVT!x106240y66720
*437 xofiller!SHFILL1_RVT!x107760y66720
*438 xofiller!SHFILL1_RVT!x109280y66720
*439 xofiller!SHFILL1_RVT!x110800y66720
*440 xofiller!SHFILL1_RVT!x112320y66720
*441 xofiller!SHFILL1_RVT!x113840y66720
*442 fsm1/U20
*443 fsm1/U21
*444 fsm1/U22
*445 fsm1/U23
*446 xofiller!SHFILL1_RVT!x115360y66720
*447 xofiller!SHFILL1_RVT!x116880y66720
*448 xofiller!SHFILL1_RVT!x118400y66720
*449 xofiller!SHFILL1_RVT!x119920y66720
*450 xofiller!SHFILL1_RVT!x121440y66720
*451 xofiller!SHFILL1_RVT!x122960y66720
*452 xofiller!SHFILL1_RVT!x124480y66720
*453 xofiller!SHFILL1_RVT!x126000y66720
*454 xofiller!SHFILL1_RVT!x127520y66720
*455 xofiller!SHFILL1_RVT!x129040y66720
*456 fsm1/U28
*457 xofiller!SHFILL1_RVT!x130560y66720
*458 xofiller!SHFILL1_RVT!x132080y66720
*459 xofiller!SHFILL1_RVT!x133600y66720
*460 xofiller!SHFILL1_RVT!x135120y66720
*461 xofiller!SHFILL1_RVT!x136640y66720
*462 xofiller!SHFILL1_RVT!x138160y66720
*463 xofiller!SHFILL1_RVT!x139680y66720
*464 xofiller!SHFILL1_RVT!x141200y66720
*465 fsm1/U32
*466 fsm1/U33
*467 fsm1/U34
*468 fsm1/U35
*469 fsm1/U36
*470 fsm1/U37
*471 fsm1/U38
*472 fsm1/U39
*473 fsm1/U40
*474 fsm1/U41
*475 fsm1/U42
*476 fsm1/U43
*477 xofiller!SHFILL1_RVT!x142720y66720
*478 xofiller!SHFILL1_RVT!x144240y66720
*479 xofiller!SHFILL1_RVT!x145760y66720
*480 fsm1/U45
*481 xofiller!SHFILL1_RVT!x147280y66720
*482 xofiller!SHFILL1_RVT!x148800y66720
*483 xofiller!SHFILL1_RVT!x150320y66720
*484 fsm1/U47
*485 fsm1/U48
*486 fsm1/U49
*487 fsm1/U50
*488 fsm1/U51
*489 fsm1/U52
*490 fsm1/U53
*491 fsm1/U54
*492 fsm1/U55
*493 fsm1/U56
*494 fsm1/U57
*495 fsm1/U58
*496 fsm1/U59
*497 fsm1/count2_reg[0]
*498 fsm1/count1_reg[0]
*499 fsm1/HFSBUF_152_0
*500 HFSBUF_389_1
*501 HFSBUF_113_2
*502 alreg1/HFSBUF_1134_10
*503 xofiller!SHFILL1_RVT!x151840y66720
*504 tgen1/ctmTdsLR_1_20
*505 count1/ctmTdsLR_1_21
*506 count1/ctmTdsLR_1_22
*507 count1/ctmTdsLR_2_23
*508 count1/ctmTdsLR_3_24
*509 xofiller!SHFILL1_RVT!x153360y66720
*510 xofiller!SHFILL1_RVT!x154880y66720
*511 xofiller!SHFILL1_RVT!x156400y66720
*512 xofiller!SHFILL1_RVT!x157920y66720
*513 xofiller!SHFILL1_RVT!x159440y66720
*514 xofiller!SHFILL1_RVT!x183760y66720
*515 xofiller!SHFILL1_RVT!x185280y66720
*516 xofiller!SHFILL1_RVT!x186800y66720
*517 xofiller!SHFILL1_RVT!x188320y66720
*518 xofiller!SHFILL1_RVT!x189840y66720
*519 xofiller!SHFILL1_RVT!x191360y66720
*520 xofiller!SHFILL1_RVT!x192880y66720
*521 xofiller!SHFILL1_RVT!x194400y66720
*522 xofiller!SHFILL1_RVT!x195920y66720
*523 xofiller!SHFILL1_RVT!x197440y66720
*524 xofiller!SHFILL1_RVT!x198960y66720
*525 xofiller!SHFILL1_RVT!x200480y66720
*526 xofiller!SHFILL1_RVT!x202000y66720
*527 xofiller!SHFILL1_RVT!x203520y66720
*528 xofiller!SHFILL1_RVT!x205040y66720
*529 xofiller!SHFILL1_RVT!x206560y66720
*530 xofiller!SHFILL1_RVT!x208080y66720
*531 xofiller!SHFILL1_RVT!x209600y66720
*532 xofiller!SHFILL1_RVT!x211120y66720
*533 xofiller!SHFILL1_RVT!x212640y66720
*534 xofiller!SHFILL1_RVT!x214160y66720
*535 xofiller!SHFILL1_RVT!x215680y66720
*536 xofiller!SHFILL1_RVT!x217200y66720
*537 xofiller!SHFILL1_RVT!x218720y66720
*538 xofiller!SHFILL1_RVT!x220240y66720
*539 xofiller!SHFILL1_RVT!x221760y66720
*540 xofiller!SHFILL1_RVT!x223280y66720
*541 xofiller!SHFILL1_RVT!x224800y66720
*542 xofiller!SHFILL1_RVT!x226320y66720
*543 xofiller!SHFILL1_RVT!x227840y66720
*544 xofiller!SHFILL1_RVT!x229360y66720
*545 xofiller!SHFILL1_RVT!x230880y66720
*546 xofiller!SHFILL1_RVT!x232400y66720
*547 xofiller!SHFILL1_RVT!x233920y66720
*548 xofiller!SHFILL1_RVT!x235440y66720
*549 xofiller!SHFILL1_RVT!x236960y66720
*550 xofiller!SHFILL1_RVT!x238480y66720
*551 xofiller!SHFILL1_RVT!x240000y66720
*552 xofiller!SHFILL1_RVT!x241520y66720
*553 xofiller!SHFILL1_RVT!x243040y66720
*554 xofiller!SHFILL1_RVT!x244560y66720
*555 xofiller!SHFILL1_RVT!x246080y66720
*556 xofiller!SHFILL1_RVT!x247600y66720
*557 xofiller!SHFILL1_RVT!x249120y66720
*558 xofiller!SHFILL1_RVT!x250640y66720
*559 xofiller!SHFILL1_RVT!x252160y66720
*560 xofiller!SHFILL1_RVT!x253680y66720
*561 xofiller!SHFILL1_RVT!x255200y66720
*562 xofiller!SHFILL1_RVT!x256720y66720
*563 xofiller!SHFILL1_RVT!x258240y66720
*564 xofiller!SHFILL1_RVT!x259760y66720
*565 xofiller!SHFILL1_RVT!x261280y66720
*566 xofiller!SHFILL1_RVT!x262800y66720
*567 xofiller!SHFILL1_RVT!x264320y66720
*568 xofiller!SHFILL1_RVT!x265840y66720
*569 xofiller!SHFILL1_RVT!x267360y66720
*570 xofiller!SHFILL1_RVT!x268880y66720
*571 xofiller!SHFILL1_RVT!x270400y66720
*572 xofiller!SHFILL1_RVT!x271920y66720
*573 xofiller!SHFILL1_RVT!x273440y66720
*574 xofiller!SHFILL1_RVT!x274960y66720
*575 xofiller!SHFILL1_RVT!x276480y66720
*576 xofiller!SHFILL1_RVT!x278000y66720
*577 xofiller!SHFILL1_RVT!x279520y66720
*578 xofiller!SHFILL1_RVT!x281040y66720
*579 xofiller!SHFILL1_RVT!x282560y66720
*580 xofiller!SHFILL1_RVT!x284080y66720
*581 xofiller!SHFILL1_RVT!x285600y66720
*582 xofiller!SHFILL1_RVT!x287120y66720
*583 xofiller!SHFILL1_RVT!x288640y66720
*584 xofiller!SHFILL1_RVT!x290160y66720
*585 xofiller!SHFILL1_RVT!x291680y66720
*586 xofiller!SHFILL1_RVT!x293200y66720
*587 xofiller!SHFILL1_RVT!x294720y66720
*588 xofiller!SHFILL1_RVT!x296240y66720
*589 xofiller!SHFILL1_RVT!x297760y66720
*590 xofiller!SHFILL1_RVT!x299280y66720
*591 xofiller!SHFILL1_RVT!x300800y66720
*592 xofiller!SHFILL1_RVT!x302320y66720
*593 xofiller!SHFILL1_RVT!x303840y66720
*594 xofiller!SHFILL1_RVT!x305360y66720
*595 xofiller!SHFILL1_RVT!x306880y66720
*596 xofiller!SHFILL1_RVT!x308400y66720
*597 xofiller!SHFILL1_RVT!x309920y66720
*598 xofiller!SHFILL1_RVT!x326640y66720
*599 xofiller!SHFILL1_RVT!x328160y66720
*600 xofiller!SHFILL1_RVT!x329680y66720
*601 xofiller!SHFILL1_RVT!x331200y66720
*602 xofiller!SHFILL1_RVT!x332720y66720
*603 xofiller!SHFILL1_RVT!x341840y66720
*604 xofiller!SHFILL1_RVT!x343360y66720
*605 xofiller!SHFILL1_RVT!x344880y66720
*606 xofiller!SHFILL1_RVT!x346400y66720
*607 xofiller!SHFILL1_RVT!x347920y66720
*608 xofiller!SHFILL1_RVT!x349440y66720
*609 xofiller!SHFILL1_RVT!x350960y66720
*610 xofiller!SHFILL1_RVT!x352480y66720
*611 xofiller!SHFILL1_RVT!x373760y66720
*612 xofiller!SHFILL1_RVT!x395040y66720
*613 xofiller!SHFILL1_RVT!x419360y66720
*614 xofiller!SHFILL1_RVT!x420880y66720
*615 xofiller!SHFILL1_RVT!x422400y66720
*616 xofiller!SHFILL1_RVT!x423920y66720
*617 xofiller!SHFILL1_RVT!x425440y66720
*618 xofiller!SHFILL1_RVT!x426960y66720
*619 xofiller!SHFILL1_RVT!x428480y66720
*620 xofiller!SHFILL1_RVT!x430000y66720
*621 xofiller!SHFILL1_RVT!x431520y66720
*622 xofiller!SHFILL1_RVT!x448240y66720
*623 xofiller!SHFILL1_RVT!x468000y66720
*624 xofiller!SHFILL1_RVT!x50000y83440
*625 xofiller!SHFILL1_RVT!x51520y83440
*626 xofiller!SHFILL1_RVT!x53040y83440
*627 xofiller!SHFILL1_RVT!x54560y83440
*628 xofiller!SHFILL1_RVT!x56080y83440
*629 xofiller!SHFILL1_RVT!x57600y83440
*630 xofiller!SHFILL1_RVT!x59120y83440
*631 xofiller!SHFILL1_RVT!x60640y83440
*632 xofiller!SHFILL1_RVT!x62160y83440
*633 xofiller!SHFILL1_RVT!x63680y83440
*634 xofiller!SHFILL1_RVT!x65200y83440
*635 xofiller!SHFILL1_RVT!x66720y83440
*636 xofiller!SHFILL1_RVT!x68240y83440
*637 xofiller!SHFILL1_RVT!x77360y83440
*638 xofiller!SHFILL1_RVT!x78880y83440
*639 xofiller!SHFILL1_RVT!x80400y83440
*640 xofiller!SHFILL1_RVT!x94080y83440
*641 xofiller!SHFILL1_RVT!x95600y83440
*642 xofiller!SHFILL1_RVT!x97120y83440
*643 xofiller!SHFILL1_RVT!x121440y83440
*644 xofiller!SHFILL1_RVT!x168560y83440
*645 xofiller!SHFILL1_RVT!x170080y83440
*646 xofiller!SHFILL1_RVT!x217200y83440
*647 xofiller!SHFILL1_RVT!x218720y83440
*648 xofiller!SHFILL1_RVT!x220240y83440
*649 xofiller!SHFILL1_RVT!x221760y83440
*650 xofiller!SHFILL1_RVT!x223280y83440
*651 xofiller!SHFILL1_RVT!x255200y83440
*652 xofiller!SHFILL1_RVT!x256720y83440
*653 xofiller!SHFILL1_RVT!x258240y83440
*654 xofiller!SHFILL1_RVT!x350960y83440
*655 xofiller!SHFILL1_RVT!x352480y83440
*656 xofiller!SHFILL1_RVT!x354000y83440
*657 xofiller!SHFILL1_RVT!x355520y83440
*658 xofiller!SHFILL1_RVT!x357040y83440
*659 xofiller!SHFILL1_RVT!x358560y83440
*660 xofiller!SHFILL1_RVT!x360080y83440
*661 xofiller!SHFILL1_RVT!x361600y83440
*662 xofiller!SHFILL1_RVT!x363120y83440
*663 xofiller!SHFILL1_RVT!x382880y83440
*664 xofiller!SHFILL1_RVT!x384400y83440
*665 xofiller!SHFILL1_RVT!x385920y83440
*666 xofiller!SHFILL1_RVT!x387440y83440
*667 xofiller!SHFILL1_RVT!x388960y83440
*668 xofiller!SHFILL1_RVT!x390480y83440
*669 xofiller!SHFILL1_RVT!x392000y83440
*670 xofiller!SHFILL1_RVT!x393520y83440
*671 xofiller!SHFILL1_RVT!x395040y83440
*672 xofiller!SHFILL1_RVT!x396560y83440
*673 xofiller!SHFILL1_RVT!x398080y83440
*674 xofiller!SHFILL1_RVT!x399600y83440
*675 xofiller!SHFILL1_RVT!x401120y83440
*676 xofiller!SHFILL1_RVT!x402640y83440
*677 xofiller!SHFILL1_RVT!x404160y83440
*678 xofiller!SHFILL1_RVT!x405680y83440
*679 xofiller!SHFILL1_RVT!x407200y83440
*680 xofiller!SHFILL1_RVT!x408720y83440
*681 xofiller!SHFILL1_RVT!x410240y83440
*682 xofiller!SHFILL1_RVT!x411760y83440
*683 xofiller!SHFILL1_RVT!x413280y83440
*684 xofiller!SHFILL1_RVT!x414800y83440
*685 xofiller!SHFILL1_RVT!x416320y83440
*686 xofiller!SHFILL1_RVT!x417840y83440
*687 xofiller!SHFILL1_RVT!x439120y83440
*688 xofiller!SHFILL1_RVT!x440640y83440
*689 xofiller!SHFILL1_RVT!x442160y83440
*690 xofiller!SHFILL1_RVT!x443680y83440
*691 xofiller!SHFILL1_RVT!x50000y100160
*692 xofiller!SHFILL1_RVT!x51520y100160
*693 xofiller!SHFILL1_RVT!x53040y100160
*694 xofiller!SHFILL1_RVT!x160960y100160
*695 xofiller!SHFILL1_RVT!x162480y100160
*696 xofiller!SHFILL1_RVT!x366160y100160
*697 xofiller!SHFILL1_RVT!x367680y100160
*698 xofiller!SHFILL1_RVT!x402640y100160
*699 xofiller!SHFILL1_RVT!x404160y100160
*700 xofiller!SHFILL1_RVT!x425440y100160
*701 xofiller!SHFILL1_RVT!x426960y100160
*702 xofiller!SHFILL1_RVT!x428480y100160
*703 xofiller!SHFILL1_RVT!x430000y100160
*704 xofiller!SHFILL1_RVT!x449760y100160
*705 xofiller!SHFILL1_RVT!x451280y100160
*706 xofiller!SHFILL1_RVT!x452800y100160
*707 xofiller!SHFILL1_RVT!x454320y100160
*708 xofiller!SHFILL1_RVT!x455840y100160
*709 xofiller!SHFILL1_RVT!x457360y100160
*710 xofiller!SHFILL1_RVT!x458880y100160
*711 xofiller!SHFILL1_RVT!x460400y100160
*712 xofiller!SHFILL1_RVT!x461920y100160
*713 xofiller!SHFILL1_RVT!x463440y100160
*714 xofiller!SHFILL1_RVT!x464960y100160
*715 xofiller!SHFILL1_RVT!x466480y100160
*716 xofiller!SHFILL1_RVT!x468000y100160
*717 xofiller!SHFILL1_RVT!x469520y100160
*718 xofiller!SHFILL1_RVT!x471040y100160
*719 xofiller!SHFILL1_RVT!x472560y100160
*720 xofiller!SHFILL1_RVT!x474080y100160
*721 xofiller!SHFILL1_RVT!x475600y100160
*722 xofiller!SHFILL1_RVT!x50000y116880
*723 xofiller!SHFILL1_RVT!x51520y116880
*724 xofiller!SHFILL1_RVT!x53040y116880
*725 xofiller!SHFILL1_RVT!x54560y116880
*726 xofiller!SHFILL1_RVT!x56080y116880
*727 xofiller!SHFILL1_RVT!x57600y116880
*728 xofiller!SHFILL1_RVT!x59120y116880
*729 xofiller!SHFILL1_RVT!x60640y116880
*730 xofiller!SHFILL1_RVT!x62160y116880
*731 xofiller!SHFILL1_RVT!x63680y116880
*732 xofiller!SHFILL1_RVT!x65200y116880
*733 xofiller!SHFILL1_RVT!x66720y116880
*734 xofiller!SHFILL1_RVT!x68240y116880
*735 xofiller!SHFILL1_RVT!x69760y116880
*736 xofiller!SHFILL1_RVT!x71280y116880
*737 xofiller!SHFILL1_RVT!x72800y116880
*738 xofiller!SHFILL1_RVT!x74320y116880
*739 xofiller!SHFILL1_RVT!x75840y116880
*740 xofiller!SHFILL1_RVT!x77360y116880
*741 xofiller!SHFILL1_RVT!x78880y116880
*742 xofiller!SHFILL1_RVT!x80400y116880
*743 xofiller!SHFILL1_RVT!x81920y116880
*744 xofiller!SHFILL1_RVT!x83440y116880
*745 xofiller!SHFILL1_RVT!x84960y116880
*746 xofiller!SHFILL1_RVT!x86480y116880
*747 xofiller!SHFILL1_RVT!x88000y116880
*748 xofiller!SHFILL1_RVT!x89520y116880
*749 xofiller!SHFILL1_RVT!x91040y116880
*750 xofiller!SHFILL1_RVT!x92560y116880
*751 xofiller!SHFILL1_RVT!x94080y116880
*752 xofiller!SHFILL1_RVT!x95600y116880
*753 xofiller!SHFILL1_RVT!x97120y116880
*754 xofiller!SHFILL1_RVT!x98640y116880
*755 xofiller!SHFILL1_RVT!x100160y116880
*756 xofiller!SHFILL1_RVT!x101680y116880
*757 xofiller!SHFILL1_RVT!x103200y116880
*758 xofiller!SHFILL1_RVT!x104720y116880
*759 xofiller!SHFILL1_RVT!x106240y116880
*760 xofiller!SHFILL1_RVT!x107760y116880
*761 xofiller!SHFILL1_RVT!x109280y116880
*762 xofiller!SHFILL1_RVT!x110800y116880
*763 xofiller!SHFILL1_RVT!x112320y116880
*764 xofiller!SHFILL1_RVT!x113840y116880
*765 xofiller!SHFILL1_RVT!x115360y116880
*766 xofiller!SHFILL1_RVT!x116880y116880
*767 xofiller!SHFILL1_RVT!x118400y116880
*768 xofiller!SHFILL1_RVT!x119920y116880
*769 xofiller!SHFILL1_RVT!x121440y116880
*770 xofiller!SHFILL1_RVT!x122960y116880
*771 xofiller!SHFILL1_RVT!x124480y116880
*772 xofiller!SHFILL1_RVT!x126000y116880
*773 xofiller!SHFILL1_RVT!x127520y116880
*774 xofiller!SHFILL1_RVT!x129040y116880
*775 xofiller!SHFILL1_RVT!x130560y116880
*776 xofiller!SHFILL1_RVT!x132080y116880
*777 xofiller!SHFILL1_RVT!x133600y116880
*778 xofiller!SHFILL1_RVT!x135120y116880
*779 xofiller!SHFILL1_RVT!x136640y116880
*780 xofiller!SHFILL1_RVT!x138160y116880
*781 xofiller!SHFILL1_RVT!x139680y116880
*782 xofiller!SHFILL1_RVT!x141200y116880
*783 xofiller!SHFILL1_RVT!x142720y116880
*784 xofiller!SHFILL1_RVT!x144240y116880
*785 xofiller!SHFILL1_RVT!x145760y116880
*786 xofiller!SHFILL1_RVT!x147280y116880
*787 xofiller!SHFILL1_RVT!x148800y116880
*788 xofiller!SHFILL1_RVT!x150320y116880
*789 xofiller!SHFILL1_RVT!x151840y116880
*790 xofiller!SHFILL1_RVT!x153360y116880
*791 xofiller!SHFILL1_RVT!x154880y116880
*792 xofiller!SHFILL1_RVT!x156400y116880
*793 xofiller!SHFILL1_RVT!x157920y116880
*794 xofiller!SHFILL1_RVT!x159440y116880
*795 xofiller!SHFILL1_RVT!x160960y116880
*796 xofiller!SHFILL1_RVT!x162480y116880
*797 xofiller!SHFILL1_RVT!x164000y116880
*798 xofiller!SHFILL1_RVT!x165520y116880
*799 xofiller!SHFILL1_RVT!x167040y116880
*800 xofiller!SHFILL1_RVT!x168560y116880
*801 xofiller!SHFILL1_RVT!x185280y116880
*802 xofiller!SHFILL1_RVT!x186800y116880
*803 xofiller!SHFILL1_RVT!x188320y116880
*804 xofiller!SHFILL1_RVT!x189840y116880
*805 xofiller!SHFILL1_RVT!x191360y116880
*806 xofiller!SHFILL1_RVT!x192880y116880
*807 xofiller!SHFILL1_RVT!x194400y116880
*808 xofiller!SHFILL1_RVT!x211120y116880
*809 xofiller!SHFILL1_RVT!x212640y116880
*810 xofiller!SHFILL1_RVT!x214160y116880
*811 xofiller!SHFILL1_RVT!x215680y116880
*812 xofiller!SHFILL1_RVT!x217200y116880
*813 xofiller!SHFILL1_RVT!x218720y116880
*814 xofiller!SHFILL1_RVT!x235440y116880
*815 xofiller!SHFILL1_RVT!x236960y116880
*816 xofiller!SHFILL1_RVT!x303840y116880
*817 xofiller!SHFILL1_RVT!x305360y116880
*818 xofiller!SHFILL1_RVT!x306880y116880
*819 xofiller!SHFILL1_RVT!x308400y116880
*820 xofiller!SHFILL1_RVT!x309920y116880
*821 xofiller!SHFILL1_RVT!x311440y116880
*822 xofiller!SHFILL1_RVT!x312960y116880
*823 xofiller!SHFILL1_RVT!x314480y116880
*824 xofiller!SHFILL1_RVT!x316000y116880
*825 xofiller!SHFILL1_RVT!x317520y116880
*826 xofiller!SHFILL1_RVT!x319040y116880
*827 xofiller!SHFILL1_RVT!x320560y116880
*828 xofiller!SHFILL1_RVT!x322080y116880
*829 xofiller!SHFILL1_RVT!x323600y116880
*830 xofiller!SHFILL1_RVT!x325120y116880
*831 xofiller!SHFILL1_RVT!x326640y116880
*832 xofiller!SHFILL1_RVT!x328160y116880
*833 xofiller!SHFILL1_RVT!x329680y116880
*834 xofiller!SHFILL1_RVT!x331200y116880
*835 xofiller!SHFILL1_RVT!x332720y116880
*836 xofiller!SHFILL1_RVT!x334240y116880
*837 xofiller!SHFILL1_RVT!x335760y116880
*838 xofiller!SHFILL1_RVT!x337280y116880
*839 xofiller!SHFILL1_RVT!x338800y116880
*840 xofiller!SHFILL1_RVT!x340320y116880
*841 xofiller!SHFILL1_RVT!x341840y116880
*842 xofiller!SHFILL1_RVT!x343360y116880
*843 xofiller!SHFILL1_RVT!x344880y116880
*844 xofiller!SHFILL1_RVT!x346400y116880
*845 xofiller!SHFILL1_RVT!x347920y116880
*846 xofiller!SHFILL1_RVT!x349440y116880
*847 xofiller!SHFILL1_RVT!x350960y116880
*848 xofiller!SHFILL1_RVT!x352480y116880
*849 xofiller!SHFILL1_RVT!x354000y116880
*850 xofiller!SHFILL1_RVT!x355520y116880
*851 xofiller!SHFILL1_RVT!x357040y116880
*852 xofiller!SHFILL1_RVT!x358560y116880
*853 xofiller!SHFILL1_RVT!x360080y116880
*854 xofiller!SHFILL1_RVT!x361600y116880
*855 xofiller!SHFILL1_RVT!x363120y116880
*856 xofiller!SHFILL1_RVT!x364640y116880
*857 xofiller!SHFILL1_RVT!x366160y116880
*858 xofiller!SHFILL1_RVT!x367680y116880
*859 xofiller!SHFILL1_RVT!x369200y116880
*860 xofiller!SHFILL1_RVT!x370720y116880
*861 xofiller!SHFILL1_RVT!x372240y116880
*862 xofiller!SHFILL1_RVT!x373760y116880
*863 xofiller!SHFILL1_RVT!x375280y116880
*864 xofiller!SHFILL1_RVT!x376800y116880
*865 xofiller!SHFILL1_RVT!x378320y116880
*866 xofiller!SHFILL1_RVT!x379840y116880
*867 xofiller!SHFILL1_RVT!x381360y116880
*868 xofiller!SHFILL1_RVT!x382880y116880
*869 xofiller!SHFILL1_RVT!x384400y116880
*870 xofiller!SHFILL1_RVT!x385920y116880
*871 xofiller!SHFILL1_RVT!x387440y116880
*872 xofiller!SHFILL1_RVT!x388960y116880
*873 xofiller!SHFILL1_RVT!x390480y116880
*874 xofiller!SHFILL1_RVT!x392000y116880
*875 xofiller!SHFILL1_RVT!x405680y116880
*876 xofiller!SHFILL1_RVT!x407200y116880
*877 xofiller!SHFILL1_RVT!x408720y116880
*878 xofiller!SHFILL1_RVT!x410240y116880
*879 xofiller!SHFILL1_RVT!x411760y116880
*880 xofiller!SHFILL1_RVT!x413280y116880
*881 xofiller!SHFILL1_RVT!x414800y116880
*882 xofiller!SHFILL1_RVT!x416320y116880
*883 xofiller!SHFILL1_RVT!x417840y116880
*884 xofiller!SHFILL1_RVT!x419360y116880
*885 xofiller!SHFILL1_RVT!x420880y116880
*886 xofiller!SHFILL1_RVT!x422400y116880
*887 xofiller!SHFILL1_RVT!x439120y116880
*888 xofiller!SHFILL1_RVT!x440640y116880
*889 xofiller!SHFILL1_RVT!x442160y116880
*890 xofiller!SHFILL1_RVT!x443680y116880
*891 xofiller!SHFILL1_RVT!x445200y116880
*892 xofiller!SHFILL1_RVT!x446720y116880
*893 xofiller!SHFILL1_RVT!x448240y116880
*894 xofiller!SHFILL1_RVT!x50000y133600
*895 xofiller!SHFILL1_RVT!x68240y133600
*896 xofiller!SHFILL1_RVT!x69760y133600
*897 xofiller!SHFILL1_RVT!x116880y133600
*898 xofiller!SHFILL1_RVT!x118400y133600
*899 xofiller!SHFILL1_RVT!x119920y133600
*900 xofiller!SHFILL1_RVT!x167040y133600
*901 xofiller!SHFILL1_RVT!x168560y133600
*902 xofiller!SHFILL1_RVT!x170080y133600
*903 xofiller!SHFILL1_RVT!x171600y133600
*904 xofiller!SHFILL1_RVT!x173120y133600
*905 xofiller!SHFILL1_RVT!x174640y133600
*906 xofiller!SHFILL1_RVT!x176160y133600
*907 xofiller!SHFILL1_RVT!x177680y133600
*908 xofiller!SHFILL1_RVT!x224800y133600
*909 xofiller!SHFILL1_RVT!x226320y133600
*910 xofiller!SHFILL1_RVT!x227840y133600
*911 xofiller!SHFILL1_RVT!x244560y133600
*912 xofiller!SHFILL1_RVT!x246080y133600
*913 xofiller!SHFILL1_RVT!x247600y133600
*914 xofiller!SHFILL1_RVT!x249120y133600
*915 xofiller!SHFILL1_RVT!x250640y133600
*916 xofiller!SHFILL1_RVT!x252160y133600
*917 xofiller!SHFILL1_RVT!x253680y133600
*918 xofiller!SHFILL1_RVT!x255200y133600
*919 xofiller!SHFILL1_RVT!x256720y133600
*920 xofiller!SHFILL1_RVT!x258240y133600
*921 xofiller!SHFILL1_RVT!x259760y133600
*922 xofiller!SHFILL1_RVT!x261280y133600
*923 xofiller!SHFILL1_RVT!x262800y133600
*924 xofiller!SHFILL1_RVT!x264320y133600
*925 xofiller!SHFILL1_RVT!x265840y133600
*926 xofiller!SHFILL1_RVT!x267360y133600
*927 xofiller!SHFILL1_RVT!x268880y133600
*928 xofiller!SHFILL1_RVT!x270400y133600
*929 xofiller!SHFILL1_RVT!x271920y133600
*930 xofiller!SHFILL1_RVT!x273440y133600
*931 xofiller!SHFILL1_RVT!x274960y133600
*932 xofiller!SHFILL1_RVT!x276480y133600
*933 xofiller!SHFILL1_RVT!x278000y133600
*934 xofiller!SHFILL1_RVT!x279520y133600
*935 xofiller!SHFILL1_RVT!x281040y133600
*936 xofiller!SHFILL1_RVT!x282560y133600
*937 xofiller!SHFILL1_RVT!x284080y133600
*938 xofiller!SHFILL1_RVT!x285600y133600
*939 xofiller!SHFILL1_RVT!x287120y133600
*940 xofiller!SHFILL1_RVT!x288640y133600
*941 xofiller!SHFILL1_RVT!x290160y133600
*942 xofiller!SHFILL1_RVT!x291680y133600
*943 xofiller!SHFILL1_RVT!x293200y133600
*944 xofiller!SHFILL1_RVT!x306880y133600
*945 xofiller!SHFILL1_RVT!x308400y133600
*946 xofiller!SHFILL1_RVT!x420880y133600
*947 xofiller!SHFILL1_RVT!x422400y133600
*948 xofiller!SHFILL1_RVT!x423920y133600
*949 xofiller!SHFILL1_RVT!x425440y133600
*950 xofiller!SHFILL1_RVT!x426960y133600
*951 xofiller!SHFILL1_RVT!x428480y133600
*952 xofiller!SHFILL1_RVT!x430000y133600
*953 xofiller!SHFILL1_RVT!x443680y133600
*954 xofiller!SHFILL1_RVT!x463440y133600
*955 xofiller!SHFILL1_RVT!x474080y133600
*956 xofiller!SHFILL1_RVT!x475600y133600
*957 xofiller!SHFILL1_RVT!x50000y150320
*958 xofiller!SHFILL1_RVT!x51520y150320
*959 xofiller!SHFILL1_RVT!x53040y150320
*960 xofiller!SHFILL1_RVT!x54560y150320
*961 xofiller!SHFILL1_RVT!x56080y150320
*962 xofiller!SHFILL1_RVT!x57600y150320
*963 xofiller!SHFILL1_RVT!x77360y150320
*964 xofiller!SHFILL1_RVT!x78880y150320
*965 xofiller!SHFILL1_RVT!x80400y150320
*966 xofiller!SHFILL1_RVT!x81920y150320
*967 xofiller!SHFILL1_RVT!x83440y150320
*968 xofiller!SHFILL1_RVT!x84960y150320
*969 xofiller!SHFILL1_RVT!x86480y150320
*970 xofiller!SHFILL1_RVT!x88000y150320
*971 xofiller!SHFILL1_RVT!x89520y150320
*972 xofiller!SHFILL1_RVT!x91040y150320
*973 xofiller!SHFILL1_RVT!x92560y150320
*974 xofiller!SHFILL1_RVT!x94080y150320
*975 xofiller!SHFILL1_RVT!x95600y150320
*976 xofiller!SHFILL1_RVT!x97120y150320
*977 xofiller!SHFILL1_RVT!x98640y150320
*978 xofiller!SHFILL1_RVT!x100160y150320
*979 xofiller!SHFILL1_RVT!x185280y150320
*980 xofiller!SHFILL1_RVT!x186800y150320
*981 xofiller!SHFILL1_RVT!x188320y150320
*982 xofiller!SHFILL1_RVT!x189840y150320
*983 xofiller!SHFILL1_RVT!x191360y150320
*984 xofiller!SHFILL1_RVT!x192880y150320
*985 xofiller!SHFILL1_RVT!x194400y150320
*986 xofiller!SHFILL1_RVT!x195920y150320
*987 xofiller!SHFILL1_RVT!x197440y150320
*988 xofiller!SHFILL1_RVT!x198960y150320
*989 xofiller!SHFILL1_RVT!x200480y150320
*990 xofiller!SHFILL1_RVT!x202000y150320
*991 xofiller!SHFILL1_RVT!x203520y150320
*992 xofiller!SHFILL1_RVT!x205040y150320
*993 xofiller!SHFILL1_RVT!x206560y150320
*994 xofiller!SHFILL1_RVT!x208080y150320
*995 xofiller!SHFILL1_RVT!x209600y150320
*996 xofiller!SHFILL1_RVT!x211120y150320
*997 xofiller!SHFILL1_RVT!x212640y150320
*998 xofiller!SHFILL1_RVT!x214160y150320
*999 xofiller!SHFILL1_RVT!x215680y150320
*1000 xofiller!SHFILL1_RVT!x217200y150320
*1001 xofiller!SHFILL1_RVT!x218720y150320
*1002 xofiller!SHFILL1_RVT!x220240y150320
*1003 xofiller!SHFILL1_RVT!x221760y150320
*1004 xofiller!SHFILL1_RVT!x223280y150320
*1005 xofiller!SHFILL1_RVT!x224800y150320
*1006 xofiller!SHFILL1_RVT!x226320y150320
*1007 xofiller!SHFILL1_RVT!x227840y150320
*1008 xofiller!SHFILL1_RVT!x229360y150320
*1009 xofiller!SHFILL1_RVT!x246080y150320
*1010 xofiller!SHFILL1_RVT!x247600y150320
*1011 xofiller!SHFILL1_RVT!x314480y150320
*1012 xofiller!SHFILL1_RVT!x316000y150320
*1013 xofiller!SHFILL1_RVT!x385920y150320
*1014 xofiller!SHFILL1_RVT!x387440y150320
*1015 xofiller!SHFILL1_RVT!x431520y150320
*1016 xofiller!SHFILL1_RVT!x445200y150320
*1017 xofiller!SHFILL1_RVT!x446720y150320
*1018 xofiller!SHFILL1_RVT!x448240y150320
*1019 xofiller!SHFILL1_RVT!x475600y150320
*1020 xofiller!SHFILL1_RVT!x50000y167040
*1021 xofiller!SHFILL1_RVT!x68240y167040
*1022 xofiller!SHFILL1_RVT!x69760y167040
*1023 xofiller!SHFILL1_RVT!x71280y167040
*1024 xofiller!SHFILL1_RVT!x118400y167040
*1025 xofiller!SHFILL1_RVT!x119920y167040
*1026 xofiller!SHFILL1_RVT!x121440y167040
*1027 xofiller!SHFILL1_RVT!x122960y167040
*1028 xofiller!SHFILL1_RVT!x124480y167040
*1029 xofiller!SHFILL1_RVT!x126000y167040
*1030 xofiller!SHFILL1_RVT!x127520y167040
*1031 xofiller!SHFILL1_RVT!x129040y167040
*1032 xofiller!SHFILL1_RVT!x130560y167040
*1033 xofiller!SHFILL1_RVT!x132080y167040
*1034 xofiller!SHFILL1_RVT!x133600y167040
*1035 xofiller!SHFILL1_RVT!x135120y167040
*1036 xofiller!SHFILL1_RVT!x136640y167040
*1037 xofiller!SHFILL1_RVT!x138160y167040
*1038 xofiller!SHFILL1_RVT!x139680y167040
*1039 xofiller!SHFILL1_RVT!x141200y167040
*1040 xofiller!SHFILL1_RVT!x142720y167040
*1041 xofiller!SHFILL1_RVT!x144240y167040
*1042 xofiller!SHFILL1_RVT!x145760y167040
*1043 xofiller!SHFILL1_RVT!x147280y167040
*1044 xofiller!SHFILL1_RVT!x148800y167040
*1045 xofiller!SHFILL1_RVT!x150320y167040
*1046 xofiller!SHFILL1_RVT!x151840y167040
*1047 xofiller!SHFILL1_RVT!x153360y167040
*1048 xofiller!SHFILL1_RVT!x154880y167040
*1049 xofiller!SHFILL1_RVT!x156400y167040
*1050 xofiller!SHFILL1_RVT!x157920y167040
*1051 xofiller!SHFILL1_RVT!x159440y167040
*1052 xofiller!SHFILL1_RVT!x160960y167040
*1053 xofiller!SHFILL1_RVT!x162480y167040
*1054 xofiller!SHFILL1_RVT!x164000y167040
*1055 xofiller!SHFILL1_RVT!x180720y167040
*1056 xofiller!SHFILL1_RVT!x227840y167040
*1057 xofiller!SHFILL1_RVT!x244560y167040
*1058 xofiller!SHFILL1_RVT!x246080y167040
*1059 xofiller!SHFILL1_RVT!x316000y167040
*1060 xofiller!SHFILL1_RVT!x317520y167040
*1061 xofiller!SHFILL1_RVT!x319040y167040
*1062 xofiller!SHFILL1_RVT!x335760y167040
*1063 xofiller!SHFILL1_RVT!x337280y167040
*1064 xofiller!SHFILL1_RVT!x338800y167040
*1065 xofiller!SHFILL1_RVT!x340320y167040
*1066 xofiller!SHFILL1_RVT!x341840y167040
*1067 xofiller!SHFILL1_RVT!x343360y167040
*1068 xofiller!SHFILL1_RVT!x387440y167040
*1069 xofiller!SHFILL1_RVT!x388960y167040
*1070 xofiller!SHFILL1_RVT!x390480y167040
*1071 xofiller!SHFILL1_RVT!x392000y167040
*1072 xofiller!SHFILL1_RVT!x393520y167040
*1073 xofiller!SHFILL1_RVT!x395040y167040
*1074 xofiller!SHFILL1_RVT!x396560y167040
*1075 xofiller!SHFILL1_RVT!x398080y167040
*1076 xofiller!SHFILL1_RVT!x399600y167040
*1077 xofiller!SHFILL1_RVT!x401120y167040
*1078 xofiller!SHFILL1_RVT!x402640y167040
*1079 xofiller!SHFILL1_RVT!x404160y167040
*1080 xofiller!SHFILL1_RVT!x425440y167040
*1081 xofiller!SHFILL1_RVT!x426960y167040
*1082 xofiller!SHFILL1_RVT!x428480y167040
*1083 xofiller!SHFILL1_RVT!x430000y167040
*1084 xofiller!SHFILL1_RVT!x431520y167040
*1085 xofiller!SHFILL1_RVT!x445200y167040
*1086 xofiller!SHFILL1_RVT!x446720y167040
*1087 xofiller!SHFILL1_RVT!x448240y167040
*1088 xofiller!SHFILL1_RVT!x475600y167040
*1089 xofiller!SHFILL1_RVT!x50000y183760
*1090 xofiller!SHFILL1_RVT!x51520y183760
*1091 xofiller!SHFILL1_RVT!x53040y183760
*1092 xofiller!SHFILL1_RVT!x54560y183760
*1093 xofiller!SHFILL1_RVT!x74320y183760
*1094 xofiller!SHFILL1_RVT!x167040y183760
*1095 xofiller!SHFILL1_RVT!x168560y183760
*1096 xofiller!SHFILL1_RVT!x170080y183760
*1097 xofiller!SHFILL1_RVT!x171600y183760
*1098 xofiller!SHFILL1_RVT!x173120y183760
*1099 xofiller!SHFILL1_RVT!x174640y183760
*1100 xofiller!SHFILL1_RVT!x176160y183760
*1101 xofiller!SHFILL1_RVT!x177680y183760
*1102 xofiller!SHFILL1_RVT!x179200y183760
*1103 xofiller!SHFILL1_RVT!x180720y183760
*1104 xofiller!SHFILL1_RVT!x182240y183760
*1105 xofiller!SHFILL1_RVT!x229360y183760
*1106 xofiller!SHFILL1_RVT!x230880y183760
*1107 xofiller!SHFILL1_RVT!x232400y183760
*1108 xofiller!SHFILL1_RVT!x233920y183760
*1109 xofiller!SHFILL1_RVT!x250640y183760
*1110 xofiller!SHFILL1_RVT!x252160y183760
*1111 xofiller!SHFILL1_RVT!x253680y183760
*1112 xofiller!SHFILL1_RVT!x255200y183760
*1113 xofiller!SHFILL1_RVT!x256720y183760
*1114 xofiller!SHFILL1_RVT!x258240y183760
*1115 xofiller!SHFILL1_RVT!x259760y183760
*1116 xofiller!SHFILL1_RVT!x261280y183760
*1117 xofiller!SHFILL1_RVT!x262800y183760
*1118 xofiller!SHFILL1_RVT!x264320y183760
*1119 xofiller!SHFILL1_RVT!x265840y183760
*1120 xofiller!SHFILL1_RVT!x267360y183760
*1121 xofiller!SHFILL1_RVT!x268880y183760
*1122 xofiller!SHFILL1_RVT!x270400y183760
*1123 xofiller!SHFILL1_RVT!x271920y183760
*1124 xofiller!SHFILL1_RVT!x273440y183760
*1125 xofiller!SHFILL1_RVT!x274960y183760
*1126 xofiller!SHFILL1_RVT!x276480y183760
*1127 xofiller!SHFILL1_RVT!x278000y183760
*1128 xofiller!SHFILL1_RVT!x279520y183760
*1129 xofiller!SHFILL1_RVT!x281040y183760
*1130 xofiller!SHFILL1_RVT!x297760y183760
*1131 xofiller!SHFILL1_RVT!x299280y183760
*1132 xofiller!SHFILL1_RVT!x300800y183760
*1133 xofiller!SHFILL1_RVT!x302320y183760
*1134 xofiller!SHFILL1_RVT!x303840y183760
*1135 xofiller!SHFILL1_RVT!x305360y183760
*1136 xofiller!SHFILL1_RVT!x314480y183760
*1137 xofiller!SHFILL1_RVT!x316000y183760
*1138 xofiller!SHFILL1_RVT!x317520y183760
*1139 xofiller!SHFILL1_RVT!x319040y183760
*1140 xofiller!SHFILL1_RVT!x320560y183760
*1141 xofiller!SHFILL1_RVT!x322080y183760
*1142 xofiller!SHFILL1_RVT!x323600y183760
*1143 xofiller!SHFILL1_RVT!x325120y183760
*1144 xofiller!SHFILL1_RVT!x344880y183760
*1145 xofiller!SHFILL1_RVT!x346400y183760
*1146 xofiller!SHFILL1_RVT!x347920y183760
*1147 xofiller!SHFILL1_RVT!x349440y183760
*1148 xofiller!SHFILL1_RVT!x350960y183760
*1149 xofiller!SHFILL1_RVT!x352480y183760
*1150 xofiller!SHFILL1_RVT!x354000y183760
*1151 xofiller!SHFILL1_RVT!x355520y183760
*1152 xofiller!SHFILL1_RVT!x357040y183760
*1153 xofiller!SHFILL1_RVT!x358560y183760
*1154 xofiller!SHFILL1_RVT!x360080y183760
*1155 xofiller!SHFILL1_RVT!x361600y183760
*1156 xofiller!SHFILL1_RVT!x363120y183760
*1157 xofiller!SHFILL1_RVT!x364640y183760
*1158 xofiller!SHFILL1_RVT!x366160y183760
*1159 xofiller!SHFILL1_RVT!x367680y183760
*1160 xofiller!SHFILL1_RVT!x369200y183760
*1161 xofiller!SHFILL1_RVT!x370720y183760
*1162 xofiller!SHFILL1_RVT!x372240y183760
*1163 xofiller!SHFILL1_RVT!x373760y183760
*1164 xofiller!SHFILL1_RVT!x375280y183760
*1165 xofiller!SHFILL1_RVT!x376800y183760
*1166 xofiller!SHFILL1_RVT!x378320y183760
*1167 xofiller!SHFILL1_RVT!x379840y183760
*1168 xofiller!SHFILL1_RVT!x381360y183760
*1169 xofiller!SHFILL1_RVT!x382880y183760
*1170 xofiller!SHFILL1_RVT!x384400y183760
*1171 xofiller!SHFILL1_RVT!x385920y183760
*1172 xofiller!SHFILL1_RVT!x387440y183760
*1173 xofiller!SHFILL1_RVT!x404160y183760
*1174 xofiller!SHFILL1_RVT!x405680y183760
*1175 xofiller!SHFILL1_RVT!x407200y183760
*1176 xofiller!SHFILL1_RVT!x408720y183760
*1177 xofiller!SHFILL1_RVT!x410240y183760
*1178 xofiller!SHFILL1_RVT!x411760y183760
*1179 xofiller!SHFILL1_RVT!x413280y183760
*1180 xofiller!SHFILL1_RVT!x414800y183760
*1181 xofiller!SHFILL1_RVT!x416320y183760
*1182 xofiller!SHFILL1_RVT!x417840y183760
*1183 xofiller!SHFILL1_RVT!x419360y183760
*1184 xofiller!SHFILL1_RVT!x431520y183760
*1185 xofiller!SHFILL1_RVT!x433040y183760
*1186 xofiller!SHFILL1_RVT!x442160y183760
*1187 xofiller!SHFILL1_RVT!x451280y183760
*1188 xofiller!SHFILL1_RVT!x452800y183760
*1189 xofiller!SHFILL1_RVT!x454320y183760
*1190 xofiller!SHFILL1_RVT!x455840y183760
*1191 xofiller!SHFILL1_RVT!x457360y183760
*1192 xofiller!SHFILL1_RVT!x458880y183760
*1193 xofiller!SHFILL1_RVT!x460400y183760
*1194 xofiller!SHFILL1_RVT!x461920y183760
*1195 xofiller!SHFILL1_RVT!x472560y183760
*1196 xofiller!SHFILL1_RVT!x474080y183760
*1197 xofiller!SHFILL1_RVT!x475600y183760
*1198 xofiller!SHFILL1_RVT!x50000y200480
*1199 xofiller!SHFILL1_RVT!x68240y200480
*1200 xofiller!SHFILL1_RVT!x69760y200480
*1201 xofiller!SHFILL1_RVT!x71280y200480
*1202 xofiller!SHFILL1_RVT!x72800y200480
*1203 xofiller!SHFILL1_RVT!x74320y200480
*1204 xofiller!SHFILL1_RVT!x75840y200480
*1205 xofiller!SHFILL1_RVT!x77360y200480
*1206 xofiller!SHFILL1_RVT!x78880y200480
*1207 xofiller!SHFILL1_RVT!x80400y200480
*1208 xofiller!SHFILL1_RVT!x81920y200480
*1209 xofiller!SHFILL1_RVT!x83440y200480
*1210 xofiller!SHFILL1_RVT!x84960y200480
*1211 xofiller!SHFILL1_RVT!x86480y200480
*1212 xofiller!SHFILL1_RVT!x88000y200480
*1213 xofiller!SHFILL1_RVT!x89520y200480
*1214 xofiller!SHFILL1_RVT!x91040y200480
*1215 xofiller!SHFILL1_RVT!x92560y200480
*1216 xofiller!SHFILL1_RVT!x94080y200480
*1217 xofiller!SHFILL1_RVT!x95600y200480
*1218 xofiller!SHFILL1_RVT!x97120y200480
*1219 xofiller!SHFILL1_RVT!x98640y200480
*1220 xofiller!SHFILL1_RVT!x100160y200480
*1221 xofiller!SHFILL1_RVT!x101680y200480
*1222 xofiller!SHFILL1_RVT!x103200y200480
*1223 xofiller!SHFILL1_RVT!x104720y200480
*1224 xofiller!SHFILL1_RVT!x106240y200480
*1225 xofiller!SHFILL1_RVT!x107760y200480
*1226 xofiller!SHFILL1_RVT!x109280y200480
*1227 xofiller!SHFILL1_RVT!x110800y200480
*1228 xofiller!SHFILL1_RVT!x112320y200480
*1229 xofiller!SHFILL1_RVT!x113840y200480
*1230 xofiller!SHFILL1_RVT!x115360y200480
*1231 xofiller!SHFILL1_RVT!x116880y200480
*1232 xofiller!SHFILL1_RVT!x118400y200480
*1233 xofiller!SHFILL1_RVT!x119920y200480
*1234 xofiller!SHFILL1_RVT!x121440y200480
*1235 xofiller!SHFILL1_RVT!x122960y200480
*1236 xofiller!SHFILL1_RVT!x185280y200480
*1237 xofiller!SHFILL1_RVT!x186800y200480
*1238 xofiller!SHFILL1_RVT!x188320y200480
*1239 xofiller!SHFILL1_RVT!x189840y200480
*1240 xofiller!SHFILL1_RVT!x191360y200480
*1241 xofiller!SHFILL1_RVT!x192880y200480
*1242 xofiller!SHFILL1_RVT!x194400y200480
*1243 xofiller!SHFILL1_RVT!x195920y200480
*1244 xofiller!SHFILL1_RVT!x197440y200480
*1245 xofiller!SHFILL1_RVT!x198960y200480
*1246 xofiller!SHFILL1_RVT!x200480y200480
*1247 xofiller!SHFILL1_RVT!x202000y200480
*1248 xofiller!SHFILL1_RVT!x203520y200480
*1249 xofiller!SHFILL1_RVT!x205040y200480
*1250 xofiller!SHFILL1_RVT!x206560y200480
*1251 xofiller!SHFILL1_RVT!x208080y200480
*1252 xofiller!SHFILL1_RVT!x209600y200480
*1253 xofiller!SHFILL1_RVT!x211120y200480
*1254 xofiller!SHFILL1_RVT!x212640y200480
*1255 xofiller!SHFILL1_RVT!x214160y200480
*1256 xofiller!SHFILL1_RVT!x215680y200480
*1257 xofiller!SHFILL1_RVT!x217200y200480
*1258 xofiller!SHFILL1_RVT!x218720y200480
*1259 xofiller!SHFILL1_RVT!x220240y200480
*1260 xofiller!SHFILL1_RVT!x221760y200480
*1261 xofiller!SHFILL1_RVT!x223280y200480
*1262 xofiller!SHFILL1_RVT!x224800y200480
*1263 xofiller!SHFILL1_RVT!x226320y200480
*1264 xofiller!SHFILL1_RVT!x227840y200480
*1265 xofiller!SHFILL1_RVT!x229360y200480
*1266 xofiller!SHFILL1_RVT!x230880y200480
*1267 xofiller!SHFILL1_RVT!x241520y200480
*1268 xofiller!SHFILL1_RVT!x243040y200480
*1269 xofiller!SHFILL1_RVT!x244560y200480
*1270 xofiller!SHFILL1_RVT!x246080y200480
*1271 xofiller!SHFILL1_RVT!x247600y200480
*1272 xofiller!SHFILL1_RVT!x294720y200480
*1273 xofiller!SHFILL1_RVT!x296240y200480
*1274 xofiller!SHFILL1_RVT!x297760y200480
*1275 xofiller!SHFILL1_RVT!x299280y200480
*1276 xofiller!SHFILL1_RVT!x300800y200480
*1277 xofiller!SHFILL1_RVT!x390480y200480
*1278 xofiller!SHFILL1_RVT!x411760y200480
*1279 xofiller!SHFILL1_RVT!x413280y200480
*1280 xofiller!SHFILL1_RVT!x433040y200480
*1281 xofiller!SHFILL1_RVT!x434560y200480
*1282 xofiller!SHFILL1_RVT!x436080y200480
*1283 xofiller!SHFILL1_RVT!x437600y200480
*1284 xofiller!SHFILL1_RVT!x439120y200480
*1285 xofiller!SHFILL1_RVT!x457360y200480
*1286 xofiller!SHFILL1_RVT!x458880y200480
*1287 xofiller!SHFILL1_RVT!x460400y200480
*1288 xofiller!SHFILL1_RVT!x57600y217200
*1289 xofiller!SHFILL1_RVT!x59120y217200
*1290 xofiller!SHFILL1_RVT!x60640y217200
*1291 xofiller!SHFILL1_RVT!x80400y217200
*1292 xofiller!SHFILL1_RVT!x127520y217200
*1293 xofiller!SHFILL1_RVT!x174640y217200
*1294 xofiller!SHFILL1_RVT!x176160y217200
*1295 xofiller!SHFILL1_RVT!x177680y217200
*1296 xofiller!SHFILL1_RVT!x179200y217200
*1297 xofiller!SHFILL1_RVT!x226320y217200
*1298 xofiller!SHFILL1_RVT!x227840y217200
*1299 xofiller!SHFILL1_RVT!x256720y217200
*1300 xofiller!SHFILL1_RVT!x258240y217200
*1301 xofiller!SHFILL1_RVT!x259760y217200
*1302 xofiller!SHFILL1_RVT!x261280y217200
*1303 xofiller!SHFILL1_RVT!x262800y217200
*1304 xofiller!SHFILL1_RVT!x264320y217200
*1305 xofiller!SHFILL1_RVT!x265840y217200
*1306 xofiller!SHFILL1_RVT!x267360y217200
*1307 xofiller!SHFILL1_RVT!x268880y217200
*1308 xofiller!SHFILL1_RVT!x270400y217200
*1309 xofiller!SHFILL1_RVT!x271920y217200
*1310 xofiller!SHFILL1_RVT!x273440y217200
*1311 xofiller!SHFILL1_RVT!x274960y217200
*1312 xofiller!SHFILL1_RVT!x276480y217200
*1313 xofiller!SHFILL1_RVT!x278000y217200
*1314 xofiller!SHFILL1_RVT!x279520y217200
*1315 xofiller!SHFILL1_RVT!x281040y217200
*1316 xofiller!SHFILL1_RVT!x282560y217200
*1317 xofiller!SHFILL1_RVT!x284080y217200
*1318 xofiller!SHFILL1_RVT!x285600y217200
*1319 xofiller!SHFILL1_RVT!x287120y217200
*1320 xofiller!SHFILL1_RVT!x288640y217200
*1321 xofiller!SHFILL1_RVT!x346400y217200
*1322 xofiller!SHFILL1_RVT!x390480y217200
*1323 xofiller!SHFILL1_RVT!x392000y217200
*1324 xofiller!SHFILL1_RVT!x393520y217200
*1325 xofiller!SHFILL1_RVT!x395040y217200
*1326 xofiller!SHFILL1_RVT!x396560y217200
*1327 xofiller!SHFILL1_RVT!x398080y217200
*1328 xofiller!SHFILL1_RVT!x399600y217200
*1329 xofiller!SHFILL1_RVT!x408720y217200
*1330 xofiller!SHFILL1_RVT!x410240y217200
*1331 xofiller!SHFILL1_RVT!x411760y217200
*1332 xofiller!SHFILL1_RVT!x413280y217200
*1333 xofiller!SHFILL1_RVT!x414800y217200
*1334 xofiller!SHFILL1_RVT!x416320y217200
*1335 xofiller!SHFILL1_RVT!x417840y217200
*1336 xofiller!SHFILL1_RVT!x419360y217200
*1337 xofiller!SHFILL1_RVT!x420880y217200
*1338 xofiller!SHFILL1_RVT!x458880y217200
*1339 xofiller!SHFILL1_RVT!x460400y217200
*1340 xofiller!SHFILL1_RVT!x461920y217200
*1341 xofiller!SHFILL1_RVT!x463440y217200
*1342 xofiller!SHFILL1_RVT!x464960y217200
*1343 xofiller!SHFILL1_RVT!x466480y217200
*1344 xofiller!SHFILL1_RVT!x468000y217200
*1345 xofiller!SHFILL1_RVT!x469520y217200
*1346 xofiller!SHFILL1_RVT!x471040y217200
*1347 xofiller!SHFILL1_RVT!x472560y217200
*1348 xofiller!SHFILL1_RVT!x474080y217200
*1349 xofiller!SHFILL1_RVT!x475600y217200
*1350 xofiller!SHFILL1_RVT!x50000y233920
*1351 xofiller!SHFILL1_RVT!x60640y233920
*1352 xofiller!SHFILL1_RVT!x62160y233920
*1353 xofiller!SHFILL1_RVT!x81920y233920
*1354 xofiller!SHFILL1_RVT!x129040y233920
*1355 xofiller!SHFILL1_RVT!x130560y233920
*1356 xofiller!SHFILL1_RVT!x132080y233920
*1357 xofiller!SHFILL1_RVT!x133600y233920
*1358 xofiller!SHFILL1_RVT!x135120y233920
*1359 xofiller!SHFILL1_RVT!x136640y233920
*1360 xofiller!SHFILL1_RVT!x138160y233920
*1361 xofiller!SHFILL1_RVT!x139680y233920
*1362 xofiller!SHFILL1_RVT!x141200y233920
*1363 xofiller!SHFILL1_RVT!x142720y233920
*1364 xofiller!SHFILL1_RVT!x144240y233920
*1365 xofiller!SHFILL1_RVT!x145760y233920
*1366 xofiller!SHFILL1_RVT!x147280y233920
*1367 xofiller!SHFILL1_RVT!x148800y233920
*1368 xofiller!SHFILL1_RVT!x150320y233920
*1369 xofiller!SHFILL1_RVT!x205040y233920
*1370 xofiller!SHFILL1_RVT!x206560y233920
*1371 xofiller!SHFILL1_RVT!x208080y233920
*1372 xofiller!SHFILL1_RVT!x221760y233920
*1373 xofiller!SHFILL1_RVT!x223280y233920
*1374 xofiller!SHFILL1_RVT!x224800y233920
*1375 xofiller!SHFILL1_RVT!x226320y233920
*1376 xofiller!SHFILL1_RVT!x227840y233920
*1377 xofiller!SHFILL1_RVT!x229360y233920
*1378 xofiller!SHFILL1_RVT!x230880y233920
*1379 xofiller!SHFILL1_RVT!x232400y233920
*1380 xofiller!SHFILL1_RVT!x241520y233920
*1381 xofiller!SHFILL1_RVT!x243040y233920
*1382 xofiller!SHFILL1_RVT!x244560y233920
*1383 xofiller!SHFILL1_RVT!x246080y233920
*1384 xofiller!SHFILL1_RVT!x247600y233920
*1385 xofiller!SHFILL1_RVT!x249120y233920
*1386 xofiller!SHFILL1_RVT!x250640y233920
*1387 xofiller!SHFILL1_RVT!x297760y233920
*1388 xofiller!SHFILL1_RVT!x299280y233920
*1389 xofiller!SHFILL1_RVT!x300800y233920
*1390 xofiller!SHFILL1_RVT!x302320y233920
*1391 xofiller!SHFILL1_RVT!x303840y233920
*1392 xofiller!SHFILL1_RVT!x305360y233920
*1393 xofiller!SHFILL1_RVT!x306880y233920
*1394 xofiller!SHFILL1_RVT!x308400y233920
*1395 xofiller!SHFILL1_RVT!x309920y233920
*1396 xofiller!SHFILL1_RVT!x311440y233920
*1397 xofiller!SHFILL1_RVT!x312960y233920
*1398 xofiller!SHFILL1_RVT!x314480y233920
*1399 xofiller!SHFILL1_RVT!x316000y233920
*1400 xofiller!SHFILL1_RVT!x317520y233920
*1401 xofiller!SHFILL1_RVT!x319040y233920
*1402 xofiller!SHFILL1_RVT!x320560y233920
*1403 xofiller!SHFILL1_RVT!x322080y233920
*1404 xofiller!SHFILL1_RVT!x323600y233920
*1405 xofiller!SHFILL1_RVT!x325120y233920
*1406 xofiller!SHFILL1_RVT!x326640y233920
*1407 xofiller!SHFILL1_RVT!x328160y233920
*1408 xofiller!SHFILL1_RVT!x329680y233920
*1409 xofiller!SHFILL1_RVT!x331200y233920
*1410 xofiller!SHFILL1_RVT!x332720y233920
*1411 xofiller!SHFILL1_RVT!x334240y233920
*1412 xofiller!SHFILL1_RVT!x335760y233920
*1413 xofiller!SHFILL1_RVT!x337280y233920
*1414 xofiller!SHFILL1_RVT!x390480y233920
*1415 xofiller!SHFILL1_RVT!x425440y233920
*1416 xofiller!SHFILL1_RVT!x426960y233920
*1417 xofiller!SHFILL1_RVT!x437600y233920
*1418 xofiller!SHFILL1_RVT!x439120y233920
*1419 xofiller!SHFILL1_RVT!x440640y233920
*1420 xofiller!SHFILL1_RVT!x442160y233920
*1421 xofiller!SHFILL1_RVT!x443680y233920
*1422 xofiller!SHFILL1_RVT!x445200y233920
*1423 xofiller!SHFILL1_RVT!x446720y233920
*1424 xofiller!SHFILL1_RVT!x448240y233920
*1425 xofiller!SHFILL1_RVT!x57600y250640
*1426 xofiller!SHFILL1_RVT!x59120y250640
*1427 xofiller!SHFILL1_RVT!x60640y250640
*1428 xofiller!SHFILL1_RVT!x62160y250640
*1429 xofiller!SHFILL1_RVT!x63680y250640
*1430 xofiller!SHFILL1_RVT!x65200y250640
*1431 xofiller!SHFILL1_RVT!x75840y250640
*1432 xofiller!SHFILL1_RVT!x77360y250640
*1433 xofiller!SHFILL1_RVT!x78880y250640
*1434 xofiller!SHFILL1_RVT!x80400y250640
*1435 xofiller!SHFILL1_RVT!x81920y250640
*1436 xofiller!SHFILL1_RVT!x83440y250640
*1437 xofiller!SHFILL1_RVT!x84960y250640
*1438 xofiller!SHFILL1_RVT!x86480y250640
*1439 xofiller!SHFILL1_RVT!x88000y250640
*1440 xofiller!SHFILL1_RVT!x89520y250640
*1441 xofiller!SHFILL1_RVT!x91040y250640
*1442 xofiller!SHFILL1_RVT!x92560y250640
*1443 xofiller!SHFILL1_RVT!x94080y250640
*1444 xofiller!SHFILL1_RVT!x95600y250640
*1445 xofiller!SHFILL1_RVT!x97120y250640
*1446 xofiller!SHFILL1_RVT!x98640y250640
*1447 xofiller!SHFILL1_RVT!x100160y250640
*1448 xofiller!SHFILL1_RVT!x101680y250640
*1449 xofiller!SHFILL1_RVT!x103200y250640
*1450 xofiller!SHFILL1_RVT!x104720y250640
*1451 xofiller!SHFILL1_RVT!x106240y250640
*1452 xofiller!SHFILL1_RVT!x107760y250640
*1453 xofiller!SHFILL1_RVT!x109280y250640
*1454 xofiller!SHFILL1_RVT!x110800y250640
*1455 xofiller!SHFILL1_RVT!x112320y250640
*1456 xofiller!SHFILL1_RVT!x113840y250640
*1457 xofiller!SHFILL1_RVT!x115360y250640
*1458 xofiller!SHFILL1_RVT!x116880y250640
*1459 xofiller!SHFILL1_RVT!x118400y250640
*1460 xofiller!SHFILL1_RVT!x119920y250640
*1461 xofiller!SHFILL1_RVT!x121440y250640
*1462 xofiller!SHFILL1_RVT!x122960y250640
*1463 xofiller!SHFILL1_RVT!x124480y250640
*1464 xofiller!SHFILL1_RVT!x126000y250640
*1465 xofiller!SHFILL1_RVT!x127520y250640
*1466 xofiller!SHFILL1_RVT!x129040y250640
*1467 xofiller!SHFILL1_RVT!x130560y250640
*1468 xofiller!SHFILL1_RVT!x177680y250640
*1469 xofiller!SHFILL1_RVT!x179200y250640
*1470 xofiller!SHFILL1_RVT!x180720y250640
*1471 xofiller!SHFILL1_RVT!x182240y250640
*1472 xofiller!SHFILL1_RVT!x183760y250640
*1473 xofiller!SHFILL1_RVT!x197440y250640
*1474 xofiller!SHFILL1_RVT!x198960y250640
*1475 xofiller!SHFILL1_RVT!x200480y250640
*1476 xofiller!SHFILL1_RVT!x202000y250640
*1477 xofiller!SHFILL1_RVT!x218720y250640
*1478 xofiller!SHFILL1_RVT!x220240y250640
*1479 xofiller!SHFILL1_RVT!x221760y250640
*1480 xofiller!SHFILL1_RVT!x223280y250640
*1481 xofiller!SHFILL1_RVT!x224800y250640
*1482 xofiller!SHFILL1_RVT!x226320y250640
*1483 xofiller!SHFILL1_RVT!x246080y250640
*1484 xofiller!SHFILL1_RVT!x247600y250640
*1485 xofiller!SHFILL1_RVT!x249120y250640
*1486 xofiller!SHFILL1_RVT!x250640y250640
*1487 xofiller!SHFILL1_RVT!x252160y250640
*1488 xofiller!SHFILL1_RVT!x253680y250640
*1489 xofiller!SHFILL1_RVT!x354000y250640
*1490 xofiller!SHFILL1_RVT!x355520y250640
*1491 xofiller!SHFILL1_RVT!x357040y250640
*1492 xofiller!SHFILL1_RVT!x367680y250640
*1493 xofiller!SHFILL1_RVT!x369200y250640
*1494 xofiller!SHFILL1_RVT!x370720y250640
*1495 xofiller!SHFILL1_RVT!x372240y250640
*1496 xofiller!SHFILL1_RVT!x373760y250640
*1497 xofiller!SHFILL1_RVT!x375280y250640
*1498 xofiller!SHFILL1_RVT!x376800y250640
*1499 xofiller!SHFILL1_RVT!x407200y250640
*1500 xofiller!SHFILL1_RVT!x468000y250640
*1501 xofiller!SHFILL1_RVT!x50000y267360
*1502 xofiller!SHFILL1_RVT!x59120y267360
*1503 xofiller!SHFILL1_RVT!x60640y267360
*1504 xofiller!SHFILL1_RVT!x62160y267360
*1505 xofiller!SHFILL1_RVT!x63680y267360
*1506 xofiller!SHFILL1_RVT!x65200y267360
*1507 xofiller!SHFILL1_RVT!x66720y267360
*1508 xofiller!SHFILL1_RVT!x86480y267360
*1509 xofiller!SHFILL1_RVT!x88000y267360
*1510 xofiller!SHFILL1_RVT!x180720y267360
*1511 xofiller!SHFILL1_RVT!x197440y267360
*1512 xofiller!SHFILL1_RVT!x198960y267360
*1513 xofiller!SHFILL1_RVT!x200480y267360
*1514 xofiller!SHFILL1_RVT!x202000y267360
*1515 xofiller!SHFILL1_RVT!x203520y267360
*1516 xofiller!SHFILL1_RVT!x205040y267360
*1517 xofiller!SHFILL1_RVT!x233920y267360
*1518 xofiller!SHFILL1_RVT!x235440y267360
*1519 xofiller!SHFILL1_RVT!x236960y267360
*1520 xofiller!SHFILL1_RVT!x253680y267360
*1521 xofiller!SHFILL1_RVT!x255200y267360
*1522 xofiller!SHFILL1_RVT!x256720y267360
*1523 xofiller!SHFILL1_RVT!x258240y267360
*1524 xofiller!SHFILL1_RVT!x259760y267360
*1525 xofiller!SHFILL1_RVT!x261280y267360
*1526 xofiller!SHFILL1_RVT!x262800y267360
*1527 xofiller!SHFILL1_RVT!x264320y267360
*1528 xofiller!SHFILL1_RVT!x265840y267360
*1529 xofiller!SHFILL1_RVT!x267360y267360
*1530 xofiller!SHFILL1_RVT!x268880y267360
*1531 xofiller!SHFILL1_RVT!x270400y267360
*1532 xofiller!SHFILL1_RVT!x271920y267360
*1533 xofiller!SHFILL1_RVT!x273440y267360
*1534 xofiller!SHFILL1_RVT!x274960y267360
*1535 xofiller!SHFILL1_RVT!x276480y267360
*1536 xofiller!SHFILL1_RVT!x278000y267360
*1537 xofiller!SHFILL1_RVT!x279520y267360
*1538 xofiller!SHFILL1_RVT!x281040y267360
*1539 xofiller!SHFILL1_RVT!x282560y267360
*1540 xofiller!SHFILL1_RVT!x284080y267360
*1541 xofiller!SHFILL1_RVT!x285600y267360
*1542 xofiller!SHFILL1_RVT!x287120y267360
*1543 xofiller!SHFILL1_RVT!x288640y267360
*1544 xofiller!SHFILL1_RVT!x290160y267360
*1545 xofiller!SHFILL1_RVT!x300800y267360
*1546 xofiller!SHFILL1_RVT!x344880y267360
*1547 xofiller!SHFILL1_RVT!x346400y267360
*1548 xofiller!SHFILL1_RVT!x390480y267360
*1549 xofiller!SHFILL1_RVT!x392000y267360
*1550 xofiller!SHFILL1_RVT!x393520y267360
*1551 xofiller!SHFILL1_RVT!x395040y267360
*1552 xofiller!SHFILL1_RVT!x396560y267360
*1553 xofiller!SHFILL1_RVT!x398080y267360
*1554 xofiller!SHFILL1_RVT!x399600y267360
*1555 xofiller!SHFILL1_RVT!x401120y267360
*1556 xofiller!SHFILL1_RVT!x402640y267360
*1557 xofiller!SHFILL1_RVT!x404160y267360
*1558 xofiller!SHFILL1_RVT!x405680y267360
*1559 xofiller!SHFILL1_RVT!x407200y267360
*1560 xofiller!SHFILL1_RVT!x408720y267360
*1561 xofiller!SHFILL1_RVT!x425440y267360
*1562 xofiller!SHFILL1_RVT!x446720y267360
*1563 xofiller!SHFILL1_RVT!x448240y267360
*1564 xofiller!SHFILL1_RVT!x449760y267360
*1565 xofiller!SHFILL1_RVT!x451280y267360
*1566 xofiller!SHFILL1_RVT!x452800y267360
*1567 xofiller!SHFILL1_RVT!x454320y267360
*1568 xofiller!SHFILL1_RVT!x455840y267360
*1569 xofiller!SHFILL1_RVT!x457360y267360
*1570 xofiller!SHFILL1_RVT!x458880y267360
*1571 xofiller!SHFILL1_RVT!x460400y267360
*1572 xofiller!SHFILL1_RVT!x461920y267360
*1573 xofiller!SHFILL1_RVT!x463440y267360
*1574 xofiller!SHFILL1_RVT!x464960y267360
*1575 xofiller!SHFILL1_RVT!x466480y267360
*1576 xofiller!SHFILL1_RVT!x468000y267360
*1577 xofiller!SHFILL1_RVT!x469520y267360
*1578 xofiller!SHFILL1_RVT!x471040y267360
*1579 xofiller!SHFILL1_RVT!x472560y267360
*1580 xofiller!SHFILL1_RVT!x474080y267360
*1581 xofiller!SHFILL1_RVT!x475600y267360
*1582 xofiller!SHFILL1_RVT!x57600y284080
*1583 xofiller!SHFILL1_RVT!x59120y284080
*1584 xofiller!SHFILL1_RVT!x88000y284080
*1585 xofiller!SHFILL1_RVT!x135120y284080
*1586 xofiller!SHFILL1_RVT!x136640y284080
*1587 xofiller!SHFILL1_RVT!x138160y284080
*1588 xofiller!SHFILL1_RVT!x139680y284080
*1589 xofiller!SHFILL1_RVT!x141200y284080
*1590 xofiller!SHFILL1_RVT!x142720y284080
*1591 xofiller!SHFILL1_RVT!x144240y284080
*1592 xofiller!SHFILL1_RVT!x145760y284080
*1593 xofiller!SHFILL1_RVT!x147280y284080
*1594 xofiller!SHFILL1_RVT!x148800y284080
*1595 xofiller!SHFILL1_RVT!x150320y284080
*1596 xofiller!SHFILL1_RVT!x151840y284080
*1597 xofiller!SHFILL1_RVT!x153360y284080
*1598 xofiller!SHFILL1_RVT!x154880y284080
*1599 xofiller!SHFILL1_RVT!x156400y284080
*1600 xofiller!SHFILL1_RVT!x157920y284080
*1601 xofiller!SHFILL1_RVT!x159440y284080
*1602 xofiller!SHFILL1_RVT!x160960y284080
*1603 xofiller!SHFILL1_RVT!x162480y284080
*1604 xofiller!SHFILL1_RVT!x164000y284080
*1605 xofiller!SHFILL1_RVT!x165520y284080
*1606 xofiller!SHFILL1_RVT!x167040y284080
*1607 xofiller!SHFILL1_RVT!x180720y284080
*1608 xofiller!SHFILL1_RVT!x182240y284080
*1609 xofiller!SHFILL1_RVT!x183760y284080
*1610 xofiller!SHFILL1_RVT!x185280y284080
*1611 xofiller!SHFILL1_RVT!x186800y284080
*1612 xofiller!SHFILL1_RVT!x208080y284080
*1613 xofiller!SHFILL1_RVT!x229360y284080
*1614 xofiller!SHFILL1_RVT!x230880y284080
*1615 xofiller!SHFILL1_RVT!x232400y284080
*1616 xofiller!SHFILL1_RVT!x264320y284080
*1617 xofiller!SHFILL1_RVT!x265840y284080
*1618 xofiller!SHFILL1_RVT!x267360y284080
*1619 xofiller!SHFILL1_RVT!x311440y284080
*1620 xofiller!SHFILL1_RVT!x312960y284080
*1621 xofiller!SHFILL1_RVT!x314480y284080
*1622 xofiller!SHFILL1_RVT!x316000y284080
*1623 xofiller!SHFILL1_RVT!x317520y284080
*1624 xofiller!SHFILL1_RVT!x319040y284080
*1625 xofiller!SHFILL1_RVT!x320560y284080
*1626 xofiller!SHFILL1_RVT!x322080y284080
*1627 xofiller!SHFILL1_RVT!x323600y284080
*1628 xofiller!SHFILL1_RVT!x344880y284080
*1629 xofiller!SHFILL1_RVT!x346400y284080
*1630 xofiller!SHFILL1_RVT!x414800y284080
*1631 xofiller!SHFILL1_RVT!x416320y284080
*1632 xofiller!SHFILL1_RVT!x417840y284080
*1633 xofiller!SHFILL1_RVT!x419360y284080
*1634 xofiller!SHFILL1_RVT!x420880y284080
*1635 xofiller!SHFILL1_RVT!x422400y284080
*1636 xofiller!SHFILL1_RVT!x423920y284080
*1637 xofiller!SHFILL1_RVT!x425440y284080
*1638 xofiller!SHFILL1_RVT!x436080y284080
*1639 xofiller!SHFILL1_RVT!x437600y284080
*1640 xofiller!SHFILL1_RVT!x439120y284080
*1641 xofiller!SHFILL1_RVT!x451280y284080
*1642 xofiller!SHFILL1_RVT!x209600y300800
*1643 xofiller!SHFILL1_RVT!x211120y300800
*1644 xofiller!SHFILL1_RVT!x212640y300800
*1645 xofiller!SHFILL1_RVT!x214160y300800
*1646 xofiller!SHFILL1_RVT!x215680y300800
*1647 xofiller!SHFILL1_RVT!x235440y300800
*1648 xofiller!SHFILL1_RVT!x264320y300800
*1649 xofiller!SHFILL1_RVT!x265840y300800
*1650 xofiller!SHFILL1_RVT!x267360y300800
*1651 xofiller!SHFILL1_RVT!x328160y300800
*1652 xofiller!SHFILL1_RVT!x329680y300800
*1653 xofiller!SHFILL1_RVT!x331200y300800
*1654 xofiller!SHFILL1_RVT!x332720y300800
*1655 xofiller!SHFILL1_RVT!x334240y300800
*1656 xofiller!SHFILL1_RVT!x335760y300800
*1657 xofiller!SHFILL1_RVT!x337280y300800
*1658 xofiller!SHFILL1_RVT!x338800y300800
*1659 xofiller!SHFILL1_RVT!x340320y300800
*1660 xofiller!SHFILL1_RVT!x341840y300800
*1661 xofiller!SHFILL1_RVT!x343360y300800
*1662 xofiller!SHFILL1_RVT!x344880y300800
*1663 xofiller!SHFILL1_RVT!x346400y300800
*1664 xofiller!SHFILL1_RVT!x347920y300800
*1665 xofiller!SHFILL1_RVT!x349440y300800
*1666 xofiller!SHFILL1_RVT!x350960y300800
*1667 xofiller!SHFILL1_RVT!x352480y300800
*1668 xofiller!SHFILL1_RVT!x354000y300800
*1669 xofiller!SHFILL1_RVT!x355520y300800
*1670 xofiller!SHFILL1_RVT!x357040y300800
*1671 xofiller!SHFILL1_RVT!x358560y300800
*1672 xofiller!SHFILL1_RVT!x360080y300800
*1673 xofiller!SHFILL1_RVT!x361600y300800
*1674 xofiller!SHFILL1_RVT!x363120y300800
*1675 xofiller!SHFILL1_RVT!x364640y300800
*1676 xofiller!SHFILL1_RVT!x366160y300800
*1677 xofiller!SHFILL1_RVT!x367680y300800
*1678 xofiller!SHFILL1_RVT!x369200y300800
*1679 xofiller!SHFILL1_RVT!x370720y300800
*1680 xofiller!SHFILL1_RVT!x372240y300800
*1681 xofiller!SHFILL1_RVT!x373760y300800
*1682 xofiller!SHFILL1_RVT!x375280y300800
*1683 xofiller!SHFILL1_RVT!x376800y300800
*1684 xofiller!SHFILL1_RVT!x378320y300800
*1685 xofiller!SHFILL1_RVT!x379840y300800
*1686 xofiller!SHFILL1_RVT!x381360y300800
*1687 xofiller!SHFILL1_RVT!x382880y300800
*1688 xofiller!SHFILL1_RVT!x384400y300800
*1689 xofiller!SHFILL1_RVT!x385920y300800
*1690 xofiller!SHFILL1_RVT!x387440y300800
*1691 xofiller!SHFILL1_RVT!x388960y300800
*1692 xofiller!SHFILL1_RVT!x390480y300800
*1693 xofiller!SHFILL1_RVT!x392000y300800
*1694 xofiller!SHFILL1_RVT!x393520y300800
*1695 xofiller!SHFILL1_RVT!x395040y300800
*1696 xofiller!SHFILL1_RVT!x420880y300800
*1697 xofiller!SHFILL1_RVT!x422400y300800
*1698 xofiller!SHFILL1_RVT!x423920y300800
*1699 xofiller!SHFILL1_RVT!x425440y300800
*1700 xofiller!SHFILL1_RVT!x475600y300800
*1701 xofiller!SHFILL1_RVT!x50000y317520
*1702 xofiller!SHFILL1_RVT!x51520y317520
*1703 xofiller!SHFILL1_RVT!x53040y317520
*1704 xofiller!SHFILL1_RVT!x54560y317520
*1705 xofiller!SHFILL1_RVT!x56080y317520
*1706 xofiller!SHFILL1_RVT!x57600y317520
*1707 xofiller!SHFILL1_RVT!x59120y317520
*1708 xofiller!SHFILL1_RVT!x60640y317520
*1709 xofiller!SHFILL1_RVT!x62160y317520
*1710 xofiller!SHFILL1_RVT!x63680y317520
*1711 xofiller!SHFILL1_RVT!x65200y317520
*1712 xofiller!SHFILL1_RVT!x66720y317520
*1713 xofiller!SHFILL1_RVT!x68240y317520
*1714 xofiller!SHFILL1_RVT!x69760y317520
*1715 xofiller!SHFILL1_RVT!x71280y317520
*1716 xofiller!SHFILL1_RVT!x72800y317520
*1717 xofiller!SHFILL1_RVT!x74320y317520
*1718 xofiller!SHFILL1_RVT!x75840y317520
*1719 xofiller!SHFILL1_RVT!x77360y317520
*1720 xofiller!SHFILL1_RVT!x78880y317520
*1721 xofiller!SHFILL1_RVT!x80400y317520
*1722 xofiller!SHFILL1_RVT!x81920y317520
*1723 xofiller!SHFILL1_RVT!x83440y317520
*1724 xofiller!SHFILL1_RVT!x84960y317520
*1725 xofiller!SHFILL1_RVT!x86480y317520
*1726 xofiller!SHFILL1_RVT!x88000y317520
*1727 xofiller!SHFILL1_RVT!x89520y317520
*1728 xofiller!SHFILL1_RVT!x91040y317520
*1729 xofiller!SHFILL1_RVT!x92560y317520
*1730 xofiller!SHFILL1_RVT!x94080y317520
*1731 xofiller!SHFILL1_RVT!x95600y317520
*1732 xofiller!SHFILL1_RVT!x97120y317520
*1733 xofiller!SHFILL1_RVT!x98640y317520
*1734 xofiller!SHFILL1_RVT!x112320y317520
*1735 xofiller!SHFILL1_RVT!x113840y317520
*1736 xofiller!SHFILL1_RVT!x115360y317520
*1737 xofiller!SHFILL1_RVT!x116880y317520
*1738 xofiller!SHFILL1_RVT!x118400y317520
*1739 xofiller!SHFILL1_RVT!x119920y317520
*1740 xofiller!SHFILL1_RVT!x121440y317520
*1741 xofiller!SHFILL1_RVT!x205040y317520
*1742 xofiller!SHFILL1_RVT!x206560y317520
*1743 xofiller!SHFILL1_RVT!x208080y317520
*1744 xofiller!SHFILL1_RVT!x224800y317520
*1745 xofiller!SHFILL1_RVT!x226320y317520
*1746 xofiller!SHFILL1_RVT!x227840y317520
*1747 xofiller!SHFILL1_RVT!x229360y317520
*1748 xofiller!SHFILL1_RVT!x230880y317520
*1749 xofiller!SHFILL1_RVT!x232400y317520
*1750 xofiller!SHFILL1_RVT!x233920y317520
*1751 xofiller!SHFILL1_RVT!x253680y317520
*1752 xofiller!SHFILL1_RVT!x255200y317520
*1753 xofiller!SHFILL1_RVT!x256720y317520
*1754 xofiller!SHFILL1_RVT!x258240y317520
*1755 xofiller!SHFILL1_RVT!x259760y317520
*1756 xofiller!SHFILL1_RVT!x261280y317520
*1757 xofiller!SHFILL1_RVT!x262800y317520
*1758 xofiller!SHFILL1_RVT!x264320y317520
*1759 xofiller!SHFILL1_RVT!x265840y317520
*1760 xofiller!SHFILL1_RVT!x267360y317520
*1761 xofiller!SHFILL1_RVT!x268880y317520
*1762 xofiller!SHFILL1_RVT!x270400y317520
*1763 xofiller!SHFILL1_RVT!x271920y317520
*1764 xofiller!SHFILL1_RVT!x273440y317520
*1765 xofiller!SHFILL1_RVT!x274960y317520
*1766 xofiller!SHFILL1_RVT!x276480y317520
*1767 xofiller!SHFILL1_RVT!x278000y317520
*1768 xofiller!SHFILL1_RVT!x279520y317520
*1769 xofiller!SHFILL1_RVT!x281040y317520
*1770 xofiller!SHFILL1_RVT!x282560y317520
*1771 xofiller!SHFILL1_RVT!x284080y317520
*1772 xofiller!SHFILL1_RVT!x285600y317520
*1773 xofiller!SHFILL1_RVT!x287120y317520
*1774 xofiller!SHFILL1_RVT!x288640y317520
*1775 xofiller!SHFILL1_RVT!x290160y317520
*1776 xofiller!SHFILL1_RVT!x291680y317520
*1777 xofiller!SHFILL1_RVT!x293200y317520
*1778 xofiller!SHFILL1_RVT!x294720y317520
*1779 xofiller!SHFILL1_RVT!x296240y317520
*1780 xofiller!SHFILL1_RVT!x297760y317520
*1781 xofiller!SHFILL1_RVT!x299280y317520
*1782 xofiller!SHFILL1_RVT!x335760y317520
*1783 xofiller!SHFILL1_RVT!x355520y317520
*1784 xofiller!SHFILL1_RVT!x357040y317520
*1785 xofiller!SHFILL1_RVT!x401120y317520
*1786 xofiller!SHFILL1_RVT!x420880y317520
*1787 xofiller!SHFILL1_RVT!x422400y317520
*1788 xofiller!SHFILL1_RVT!x423920y317520
*1789 xofiller!SHFILL1_RVT!x439120y317520
*1790 xofiller!SHFILL1_RVT!x440640y317520
*1791 xofiller!SHFILL1_RVT!x442160y317520
*1792 xofiller!SHFILL1_RVT!x443680y317520
*1793 xofiller!SHFILL1_RVT!x445200y317520
*1794 xofiller!SHFILL1_RVT!x446720y317520
*1795 xofiller!SHFILL1_RVT!x448240y317520
*1796 xofiller!SHFILL1_RVT!x468000y317520
*1797 xofiller!SHFILL1_RVT!x469520y317520
*1798 xofiller!SHFILL1_RVT!x471040y317520
*1799 xofiller!SHFILL1_RVT!x472560y317520
*1800 xofiller!SHFILL1_RVT!x474080y317520
*1801 xofiller!SHFILL1_RVT!x475600y317520
*1802 xofiller!SHFILL1_RVT!x50000y334240
*1803 xofiller!SHFILL1_RVT!x97120y334240
*1804 xofiller!SHFILL1_RVT!x98640y334240
*1805 xofiller!SHFILL1_RVT!x100160y334240
*1806 xofiller!SHFILL1_RVT!x101680y334240
*1807 xofiller!SHFILL1_RVT!x103200y334240
*1808 xofiller!SHFILL1_RVT!x104720y334240
*1809 xofiller!SHFILL1_RVT!x106240y334240
*1810 xofiller!SHFILL1_RVT!x107760y334240
*1811 xofiller!SHFILL1_RVT!x109280y334240
*1812 xofiller!SHFILL1_RVT!x110800y334240
*1813 xofiller!SHFILL1_RVT!x112320y334240
*1814 xofiller!SHFILL1_RVT!x113840y334240
*1815 xofiller!SHFILL1_RVT!x115360y334240
*1816 xofiller!SHFILL1_RVT!x116880y334240
*1817 xofiller!SHFILL1_RVT!x118400y334240
*1818 xofiller!SHFILL1_RVT!x119920y334240
*1819 xofiller!SHFILL1_RVT!x121440y334240
*1820 xofiller!SHFILL1_RVT!x122960y334240
*1821 xofiller!SHFILL1_RVT!x124480y334240
*1822 xofiller!SHFILL1_RVT!x126000y334240
*1823 xofiller!SHFILL1_RVT!x127520y334240
*1824 xofiller!SHFILL1_RVT!x129040y334240
*1825 xofiller!SHFILL1_RVT!x130560y334240
*1826 xofiller!SHFILL1_RVT!x132080y334240
*1827 xofiller!SHFILL1_RVT!x133600y334240
*1828 xofiller!SHFILL1_RVT!x135120y334240
*1829 xofiller!SHFILL1_RVT!x136640y334240
*1830 xofiller!SHFILL1_RVT!x138160y334240
*1831 xofiller!SHFILL1_RVT!x139680y334240
*1832 xofiller!SHFILL1_RVT!x141200y334240
*1833 xofiller!SHFILL1_RVT!x142720y334240
*1834 xofiller!SHFILL1_RVT!x144240y334240
*1835 xofiller!SHFILL1_RVT!x145760y334240
*1836 xofiller!SHFILL1_RVT!x147280y334240
*1837 xofiller!SHFILL1_RVT!x148800y334240
*1838 xofiller!SHFILL1_RVT!x150320y334240
*1839 xofiller!SHFILL1_RVT!x151840y334240
*1840 xofiller!SHFILL1_RVT!x153360y334240
*1841 xofiller!SHFILL1_RVT!x154880y334240
*1842 xofiller!SHFILL1_RVT!x156400y334240
*1843 xofiller!SHFILL1_RVT!x157920y334240
*1844 xofiller!SHFILL1_RVT!x159440y334240
*1845 xofiller!SHFILL1_RVT!x160960y334240
*1846 xofiller!SHFILL1_RVT!x162480y334240
*1847 xofiller!SHFILL1_RVT!x164000y334240
*1848 xofiller!SHFILL1_RVT!x165520y334240
*1849 xofiller!SHFILL1_RVT!x167040y334240
*1850 xofiller!SHFILL1_RVT!x168560y334240
*1851 xofiller!SHFILL1_RVT!x170080y334240
*1852 xofiller!SHFILL1_RVT!x171600y334240
*1853 xofiller!SHFILL1_RVT!x173120y334240
*1854 xofiller!SHFILL1_RVT!x174640y334240
*1855 xofiller!SHFILL1_RVT!x176160y334240
*1856 xofiller!SHFILL1_RVT!x177680y334240
*1857 xofiller!SHFILL1_RVT!x179200y334240
*1858 xofiller!SHFILL1_RVT!x180720y334240
*1859 xofiller!SHFILL1_RVT!x182240y334240
*1860 xofiller!SHFILL1_RVT!x183760y334240
*1861 xofiller!SHFILL1_RVT!x185280y334240
*1862 xofiller!SHFILL1_RVT!x186800y334240
*1863 xofiller!SHFILL1_RVT!x188320y334240
*1864 xofiller!SHFILL1_RVT!x205040y334240
*1865 xofiller!SHFILL1_RVT!x206560y334240
*1866 xofiller!SHFILL1_RVT!x208080y334240
*1867 xofiller!SHFILL1_RVT!x247600y334240
*1868 xofiller!SHFILL1_RVT!x284080y334240
*1869 xofiller!SHFILL1_RVT!x305360y334240
*1870 xofiller!SHFILL1_RVT!x306880y334240
*1871 xofiller!SHFILL1_RVT!x308400y334240
*1872 xofiller!SHFILL1_RVT!x309920y334240
*1873 xofiller!SHFILL1_RVT!x331200y334240
*1874 xofiller!SHFILL1_RVT!x332720y334240
*1875 xofiller!SHFILL1_RVT!x334240y334240
*1876 xofiller!SHFILL1_RVT!x335760y334240
*1877 xofiller!SHFILL1_RVT!x337280y334240
*1878 xofiller!SHFILL1_RVT!x360080y334240
*1879 xofiller!SHFILL1_RVT!x404160y334240
*1880 xofiller!SHFILL1_RVT!x423920y334240
*1881 xofiller!SHFILL1_RVT!x445200y334240
*1882 xofiller!SHFILL1_RVT!x446720y334240
*1883 xofiller!SHFILL1_RVT!x448240y334240
*1884 xofiller!SHFILL1_RVT!x460400y334240
*1885 xofiller!SHFILL1_RVT!x461920y334240
*1886 xofiller!SHFILL1_RVT!x463440y334240
*1887 xofiller!SHFILL1_RVT!x464960y334240
*1888 xofiller!SHFILL1_RVT!x50000y350960
*1889 xofiller!SHFILL1_RVT!x141200y350960
*1890 xofiller!SHFILL1_RVT!x188320y350960
*1891 xofiller!SHFILL1_RVT!x189840y350960
*1892 xofiller!SHFILL1_RVT!x191360y350960
*1893 xofiller!SHFILL1_RVT!x192880y350960
*1894 xofiller!SHFILL1_RVT!x194400y350960
*1895 xofiller!SHFILL1_RVT!x211120y350960
*1896 xofiller!SHFILL1_RVT!x212640y350960
*1897 xofiller!SHFILL1_RVT!x214160y350960
*1898 xofiller!SHFILL1_RVT!x215680y350960
*1899 xofiller!SHFILL1_RVT!x217200y350960
*1900 xofiller!SHFILL1_RVT!x230880y350960
*1901 xofiller!SHFILL1_RVT!x232400y350960
*1902 xofiller!SHFILL1_RVT!x233920y350960
*1903 xofiller!SHFILL1_RVT!x235440y350960
*1904 xofiller!SHFILL1_RVT!x236960y350960
*1905 xofiller!SHFILL1_RVT!x238480y350960
*1906 xofiller!SHFILL1_RVT!x240000y350960
*1907 xofiller!SHFILL1_RVT!x241520y350960
*1908 xofiller!SHFILL1_RVT!x243040y350960
*1909 xofiller!SHFILL1_RVT!x244560y350960
*1910 xofiller!SHFILL1_RVT!x246080y350960
*1911 xofiller!SHFILL1_RVT!x247600y350960
*1912 xofiller!SHFILL1_RVT!x249120y350960
*1913 xofiller!SHFILL1_RVT!x250640y350960
*1914 xofiller!SHFILL1_RVT!x252160y350960
*1915 xofiller!SHFILL1_RVT!x253680y350960
*1916 xofiller!SHFILL1_RVT!x255200y350960
*1917 xofiller!SHFILL1_RVT!x256720y350960
*1918 xofiller!SHFILL1_RVT!x258240y350960
*1919 xofiller!SHFILL1_RVT!x259760y350960
*1920 xofiller!SHFILL1_RVT!x261280y350960
*1921 xofiller!SHFILL1_RVT!x262800y350960
*1922 xofiller!SHFILL1_RVT!x264320y350960
*1923 xofiller!SHFILL1_RVT!x265840y350960
*1924 xofiller!SHFILL1_RVT!x267360y350960
*1925 xofiller!SHFILL1_RVT!x268880y350960
*1926 xofiller!SHFILL1_RVT!x270400y350960
*1927 xofiller!SHFILL1_RVT!x271920y350960
*1928 xofiller!SHFILL1_RVT!x273440y350960
*1929 xofiller!SHFILL1_RVT!x274960y350960
*1930 xofiller!SHFILL1_RVT!x276480y350960
*1931 xofiller!SHFILL1_RVT!x278000y350960
*1932 xofiller!SHFILL1_RVT!x279520y350960
*1933 xofiller!SHFILL1_RVT!x281040y350960
*1934 xofiller!SHFILL1_RVT!x282560y350960
*1935 xofiller!SHFILL1_RVT!x284080y350960
*1936 xofiller!SHFILL1_RVT!x285600y350960
*1937 xofiller!SHFILL1_RVT!x287120y350960
*1938 xofiller!SHFILL1_RVT!x288640y350960
*1939 xofiller!SHFILL1_RVT!x290160y350960
*1940 xofiller!SHFILL1_RVT!x291680y350960
*1941 xofiller!SHFILL1_RVT!x293200y350960
*1942 xofiller!SHFILL1_RVT!x294720y350960
*1943 xofiller!SHFILL1_RVT!x296240y350960
*1944 xofiller!SHFILL1_RVT!x297760y350960
*1945 xofiller!SHFILL1_RVT!x299280y350960
*1946 xofiller!SHFILL1_RVT!x300800y350960
*1947 xofiller!SHFILL1_RVT!x302320y350960
*1948 xofiller!SHFILL1_RVT!x303840y350960
*1949 xofiller!SHFILL1_RVT!x305360y350960
*1950 xofiller!SHFILL1_RVT!x306880y350960
*1951 xofiller!SHFILL1_RVT!x308400y350960
*1952 xofiller!SHFILL1_RVT!x309920y350960
*1953 xofiller!SHFILL1_RVT!x311440y350960
*1954 xofiller!SHFILL1_RVT!x325120y350960
*1955 xofiller!SHFILL1_RVT!x326640y350960
*1956 xofiller!SHFILL1_RVT!x328160y350960
*1957 xofiller!SHFILL1_RVT!x329680y350960
*1958 xofiller!SHFILL1_RVT!x331200y350960
*1959 xofiller!SHFILL1_RVT!x332720y350960
*1960 xofiller!SHFILL1_RVT!x334240y350960
*1961 xofiller!SHFILL1_RVT!x335760y350960
*1962 xofiller!SHFILL1_RVT!x337280y350960
*1963 xofiller!SHFILL1_RVT!x338800y350960
*1964 xofiller!SHFILL1_RVT!x340320y350960
*1965 xofiller!SHFILL1_RVT!x341840y350960
*1966 xofiller!SHFILL1_RVT!x343360y350960
*1967 xofiller!SHFILL1_RVT!x344880y350960
*1968 xofiller!SHFILL1_RVT!x346400y350960
*1969 xofiller!SHFILL1_RVT!x347920y350960
*1970 xofiller!SHFILL1_RVT!x349440y350960
*1971 xofiller!SHFILL1_RVT!x350960y350960
*1972 xofiller!SHFILL1_RVT!x352480y350960
*1973 xofiller!SHFILL1_RVT!x354000y350960
*1974 xofiller!SHFILL1_RVT!x355520y350960
*1975 xofiller!SHFILL1_RVT!x357040y350960
*1976 xofiller!SHFILL1_RVT!x358560y350960
*1977 xofiller!SHFILL1_RVT!x360080y350960
*1978 xofiller!SHFILL1_RVT!x361600y350960
*1979 xofiller!SHFILL1_RVT!x363120y350960
*1980 xofiller!SHFILL1_RVT!x407200y350960
*1981 xofiller!SHFILL1_RVT!x408720y350960
*1982 xofiller!SHFILL1_RVT!x410240y350960
*1983 xofiller!SHFILL1_RVT!x411760y350960
*1984 xofiller!SHFILL1_RVT!x413280y350960
*1985 xofiller!SHFILL1_RVT!x414800y350960
*1986 xofiller!SHFILL1_RVT!x416320y350960
*1987 xofiller!SHFILL1_RVT!x417840y350960
*1988 xofiller!SHFILL1_RVT!x419360y350960
*1989 xofiller!SHFILL1_RVT!x420880y350960
*1990 xofiller!SHFILL1_RVT!x422400y350960
*1991 xofiller!SHFILL1_RVT!x423920y350960
*1992 xofiller!SHFILL1_RVT!x439120y350960
*1993 xofiller!SHFILL1_RVT!x440640y350960
*1994 xofiller!SHFILL1_RVT!x442160y350960
*1995 xofiller!SHFILL1_RVT!x443680y350960
*1996 xofiller!SHFILL1_RVT!x445200y350960
*1997 xofiller!SHFILL1_RVT!x466480y350960
*1998 xofiller!SHFILL1_RVT!x468000y350960
*1999 xofiller!SHFILL1_RVT!x50000y367680
*2000 xofiller!SHFILL1_RVT!x60640y367680
*2001 xofiller!SHFILL1_RVT!x62160y367680
*2002 xofiller!SHFILL1_RVT!x63680y367680
*2003 xofiller!SHFILL1_RVT!x65200y367680
*2004 xofiller!SHFILL1_RVT!x66720y367680
*2005 xofiller!SHFILL1_RVT!x68240y367680
*2006 xofiller!SHFILL1_RVT!x69760y367680
*2007 xofiller!SHFILL1_RVT!x71280y367680
*2008 xofiller!SHFILL1_RVT!x72800y367680
*2009 xofiller!SHFILL1_RVT!x74320y367680
*2010 xofiller!SHFILL1_RVT!x75840y367680
*2011 xofiller!SHFILL1_RVT!x89520y367680
*2012 xofiller!SHFILL1_RVT!x91040y367680
*2013 xofiller!SHFILL1_RVT!x92560y367680
*2014 xofiller!SHFILL1_RVT!x94080y367680
*2015 xofiller!SHFILL1_RVT!x138160y367680
*2016 xofiller!SHFILL1_RVT!x364640y367680
*2017 xofiller!SHFILL1_RVT!x366160y367680
*2018 xofiller!SHFILL1_RVT!x367680y367680
*2019 xofiller!SHFILL1_RVT!x369200y367680
*2020 xofiller!SHFILL1_RVT!x370720y367680
*2021 xofiller!SHFILL1_RVT!x372240y367680
*2022 xofiller!SHFILL1_RVT!x373760y367680
*2023 xofiller!SHFILL1_RVT!x375280y367680
*2024 xofiller!SHFILL1_RVT!x376800y367680
*2025 xofiller!SHFILL1_RVT!x378320y367680
*2026 xofiller!SHFILL1_RVT!x379840y367680
*2027 xofiller!SHFILL1_RVT!x381360y367680
*2028 xofiller!SHFILL1_RVT!x382880y367680
*2029 xofiller!SHFILL1_RVT!x384400y367680
*2030 xofiller!SHFILL1_RVT!x385920y367680
*2031 xofiller!SHFILL1_RVT!x387440y367680
*2032 xofiller!SHFILL1_RVT!x388960y367680
*2033 xofiller!SHFILL1_RVT!x390480y367680
*2034 xofiller!SHFILL1_RVT!x392000y367680
*2035 xofiller!SHFILL1_RVT!x393520y367680
*2036 xofiller!SHFILL1_RVT!x395040y367680
*2037 xofiller!SHFILL1_RVT!x396560y367680
*2038 xofiller!SHFILL1_RVT!x398080y367680
*2039 xofiller!SHFILL1_RVT!x399600y367680
*2040 xofiller!SHFILL1_RVT!x401120y367680
*2041 xofiller!SHFILL1_RVT!x402640y367680
*2042 xofiller!SHFILL1_RVT!x404160y367680
*2043 xofiller!SHFILL1_RVT!x405680y367680
*2044 xofiller!SHFILL1_RVT!x407200y367680
*2045 xofiller!SHFILL1_RVT!x420880y367680
*2046 xofiller!SHFILL1_RVT!x422400y367680
*2047 xofiller!SHFILL1_RVT!x423920y367680
*2048 xofiller!SHFILL1_RVT!x425440y367680
*2049 xofiller!SHFILL1_RVT!x426960y367680
*2050 xofiller!SHFILL1_RVT!x428480y367680
*2051 xofiller!SHFILL1_RVT!x430000y367680
*2052 xofiller!SHFILL1_RVT!x431520y367680
*2053 xofiller!SHFILL1_RVT!x445200y367680
*2054 xofiller!SHFILL1_RVT!x446720y367680
*2055 xofiller!SHFILL1_RVT!x448240y367680
*2056 xofiller!SHFILL1_RVT!x449760y367680
*2057 xofiller!SHFILL1_RVT!x451280y367680
*2058 xofiller!SHFILL1_RVT!x452800y367680
*2059 xofiller!SHFILL1_RVT!x454320y367680
*2060 xofiller!SHFILL1_RVT!x455840y367680
*2061 xofiller!SHFILL1_RVT!x457360y367680
*2062 xofiller!SHFILL1_RVT!x458880y367680
*2063 xofiller!SHFILL1_RVT!x460400y367680
*2064 xofiller!SHFILL1_RVT!x461920y367680
*2065 xofiller!SHFILL1_RVT!x463440y367680
*2066 xofiller!SHFILL1_RVT!x50000y384400
*2067 xofiller!SHFILL1_RVT!x51520y384400
*2068 xofiller!SHFILL1_RVT!x60640y384400
*2069 xofiller!SHFILL1_RVT!x80400y384400
*2070 xofiller!SHFILL1_RVT!x81920y384400
*2071 xofiller!SHFILL1_RVT!x83440y384400
*2072 xofiller!SHFILL1_RVT!x84960y384400
*2073 xofiller!SHFILL1_RVT!x86480y384400
*2074 xofiller!SHFILL1_RVT!x88000y384400
*2075 xofiller!SHFILL1_RVT!x180720y384400
*2076 xofiller!SHFILL1_RVT!x182240y384400
*2077 xofiller!SHFILL1_RVT!x183760y384400
*2078 xofiller!SHFILL1_RVT!x185280y384400
*2079 xofiller!SHFILL1_RVT!x186800y384400
*2080 xofiller!SHFILL1_RVT!x188320y384400
*2081 xofiller!SHFILL1_RVT!x189840y384400
*2082 xofiller!SHFILL1_RVT!x191360y384400
*2083 xofiller!SHFILL1_RVT!x192880y384400
*2084 xofiller!SHFILL1_RVT!x194400y384400
*2085 xofiller!SHFILL1_RVT!x195920y384400
*2086 xofiller!SHFILL1_RVT!x197440y384400
*2087 xofiller!SHFILL1_RVT!x198960y384400
*2088 xofiller!SHFILL1_RVT!x200480y384400
*2089 xofiller!SHFILL1_RVT!x202000y384400
*2090 xofiller!SHFILL1_RVT!x203520y384400
*2091 xofiller!SHFILL1_RVT!x205040y384400
*2092 xofiller!SHFILL1_RVT!x206560y384400
*2093 xofiller!SHFILL1_RVT!x208080y384400
*2094 xofiller!SHFILL1_RVT!x209600y384400
*2095 xofiller!SHFILL1_RVT!x211120y384400
*2096 xofiller!SHFILL1_RVT!x212640y384400
*2097 xofiller!SHFILL1_RVT!x214160y384400
*2098 xofiller!SHFILL1_RVT!x215680y384400
*2099 xofiller!SHFILL1_RVT!x217200y384400
*2100 xofiller!SHFILL1_RVT!x218720y384400
*2101 xofiller!SHFILL1_RVT!x220240y384400
*2102 xofiller!SHFILL1_RVT!x221760y384400
*2103 xofiller!SHFILL1_RVT!x223280y384400
*2104 xofiller!SHFILL1_RVT!x224800y384400
*2105 xofiller!SHFILL1_RVT!x226320y384400
*2106 xofiller!SHFILL1_RVT!x227840y384400
*2107 xofiller!SHFILL1_RVT!x229360y384400
*2108 xofiller!SHFILL1_RVT!x230880y384400
*2109 xofiller!SHFILL1_RVT!x232400y384400
*2110 xofiller!SHFILL1_RVT!x233920y384400
*2111 xofiller!SHFILL1_RVT!x278000y384400
*2112 xofiller!SHFILL1_RVT!x279520y384400
*2113 xofiller!SHFILL1_RVT!x281040y384400
*2114 xofiller!SHFILL1_RVT!x413280y384400
*2115 xofiller!SHFILL1_RVT!x433040y384400
*2116 xofiller!SHFILL1_RVT!x434560y384400
*2117 xofiller!SHFILL1_RVT!x436080y384400
*2118 xofiller!SHFILL1_RVT!x437600y384400
*2119 xofiller!SHFILL1_RVT!x439120y384400
*2120 xofiller!SHFILL1_RVT!x440640y384400
*2121 xofiller!SHFILL1_RVT!x442160y384400
*2122 xofiller!SHFILL1_RVT!x443680y384400
*2123 xofiller!SHFILL1_RVT!x472560y384400
*2124 xofiller!SHFILL1_RVT!x474080y384400
*2125 xofiller!SHFILL1_RVT!x475600y384400
*2126 xofiller!SHFILL1_RVT!x50000y401120
*2127 xofiller!SHFILL1_RVT!x60640y401120
*2128 xofiller!SHFILL1_RVT!x62160y401120
*2129 xofiller!SHFILL1_RVT!x63680y401120
*2130 xofiller!SHFILL1_RVT!x65200y401120
*2131 xofiller!SHFILL1_RVT!x78880y401120
*2132 xofiller!SHFILL1_RVT!x80400y401120
*2133 xofiller!SHFILL1_RVT!x95600y401120
*2134 xofiller!SHFILL1_RVT!x97120y401120
*2135 xofiller!SHFILL1_RVT!x98640y401120
*2136 xofiller!SHFILL1_RVT!x100160y401120
*2137 xofiller!SHFILL1_RVT!x101680y401120
*2138 xofiller!SHFILL1_RVT!x103200y401120
*2139 xofiller!SHFILL1_RVT!x104720y401120
*2140 xofiller!SHFILL1_RVT!x106240y401120
*2141 xofiller!SHFILL1_RVT!x107760y401120
*2142 xofiller!SHFILL1_RVT!x109280y401120
*2143 xofiller!SHFILL1_RVT!x110800y401120
*2144 xofiller!SHFILL1_RVT!x112320y401120
*2145 xofiller!SHFILL1_RVT!x113840y401120
*2146 xofiller!SHFILL1_RVT!x115360y401120
*2147 xofiller!SHFILL1_RVT!x116880y401120
*2148 xofiller!SHFILL1_RVT!x118400y401120
*2149 xofiller!SHFILL1_RVT!x119920y401120
*2150 xofiller!SHFILL1_RVT!x121440y401120
*2151 xofiller!SHFILL1_RVT!x122960y401120
*2152 xofiller!SHFILL1_RVT!x124480y401120
*2153 xofiller!SHFILL1_RVT!x126000y401120
*2154 xofiller!SHFILL1_RVT!x127520y401120
*2155 xofiller!SHFILL1_RVT!x129040y401120
*2156 xofiller!SHFILL1_RVT!x130560y401120
*2157 xofiller!SHFILL1_RVT!x132080y401120
*2158 xofiller!SHFILL1_RVT!x133600y401120
*2159 xofiller!SHFILL1_RVT!x135120y401120
*2160 xofiller!SHFILL1_RVT!x136640y401120
*2161 xofiller!SHFILL1_RVT!x138160y401120
*2162 xofiller!SHFILL1_RVT!x139680y401120
*2163 xofiller!SHFILL1_RVT!x141200y401120
*2164 xofiller!SHFILL1_RVT!x142720y401120
*2165 xofiller!SHFILL1_RVT!x144240y401120
*2166 xofiller!SHFILL1_RVT!x145760y401120
*2167 xofiller!SHFILL1_RVT!x147280y401120
*2168 xofiller!SHFILL1_RVT!x148800y401120
*2169 xofiller!SHFILL1_RVT!x150320y401120
*2170 xofiller!SHFILL1_RVT!x151840y401120
*2171 xofiller!SHFILL1_RVT!x153360y401120
*2172 xofiller!SHFILL1_RVT!x154880y401120
*2173 xofiller!SHFILL1_RVT!x156400y401120
*2174 xofiller!SHFILL1_RVT!x157920y401120
*2175 xofiller!SHFILL1_RVT!x159440y401120
*2176 xofiller!SHFILL1_RVT!x160960y401120
*2177 xofiller!SHFILL1_RVT!x162480y401120
*2178 xofiller!SHFILL1_RVT!x164000y401120
*2179 xofiller!SHFILL1_RVT!x165520y401120
*2180 xofiller!SHFILL1_RVT!x167040y401120
*2181 xofiller!SHFILL1_RVT!x168560y401120
*2182 xofiller!SHFILL1_RVT!x170080y401120
*2183 xofiller!SHFILL1_RVT!x171600y401120
*2184 xofiller!SHFILL1_RVT!x173120y401120
*2185 xofiller!SHFILL1_RVT!x174640y401120
*2186 xofiller!SHFILL1_RVT!x176160y401120
*2187 xofiller!SHFILL1_RVT!x177680y401120
*2188 xofiller!SHFILL1_RVT!x236960y401120
*2189 xofiller!SHFILL1_RVT!x238480y401120
*2190 xofiller!SHFILL1_RVT!x240000y401120
*2191 xofiller!SHFILL1_RVT!x241520y401120
*2192 xofiller!SHFILL1_RVT!x243040y401120
*2193 xofiller!SHFILL1_RVT!x244560y401120
*2194 xofiller!SHFILL1_RVT!x262800y401120
*2195 xofiller!SHFILL1_RVT!x264320y401120
*2196 xofiller!SHFILL1_RVT!x265840y401120
*2197 xofiller!SHFILL1_RVT!x267360y401120
*2198 xofiller!SHFILL1_RVT!x268880y401120
*2199 xofiller!SHFILL1_RVT!x270400y401120
*2200 xofiller!SHFILL1_RVT!x290160y401120
*2201 xofiller!SHFILL1_RVT!x291680y401120
*2202 xofiller!SHFILL1_RVT!x293200y401120
*2203 xofiller!SHFILL1_RVT!x294720y401120
*2204 xofiller!SHFILL1_RVT!x296240y401120
*2205 xofiller!SHFILL1_RVT!x297760y401120
*2206 xofiller!SHFILL1_RVT!x299280y401120
*2207 xofiller!SHFILL1_RVT!x300800y401120
*2208 xofiller!SHFILL1_RVT!x302320y401120
*2209 xofiller!SHFILL1_RVT!x303840y401120
*2210 xofiller!SHFILL1_RVT!x305360y401120
*2211 xofiller!SHFILL1_RVT!x306880y401120
*2212 xofiller!SHFILL1_RVT!x308400y401120
*2213 xofiller!SHFILL1_RVT!x309920y401120
*2214 xofiller!SHFILL1_RVT!x311440y401120
*2215 xofiller!SHFILL1_RVT!x312960y401120
*2216 xofiller!SHFILL1_RVT!x329680y401120
*2217 xofiller!SHFILL1_RVT!x331200y401120
*2218 xofiller!SHFILL1_RVT!x332720y401120
*2219 xofiller!SHFILL1_RVT!x334240y401120
*2220 xofiller!SHFILL1_RVT!x335760y401120
*2221 xofiller!SHFILL1_RVT!x346400y401120
*2222 xofiller!SHFILL1_RVT!x347920y401120
*2223 xofiller!SHFILL1_RVT!x349440y401120
*2224 xofiller!SHFILL1_RVT!x367680y401120
*2225 xofiller!SHFILL1_RVT!x369200y401120
*2226 xofiller!SHFILL1_RVT!x413280y401120
*2227 xofiller!SHFILL1_RVT!x414800y401120
*2228 xofiller!SHFILL1_RVT!x416320y401120
*2229 xofiller!SHFILL1_RVT!x417840y401120
*2230 xofiller!SHFILL1_RVT!x419360y401120
*2231 xofiller!SHFILL1_RVT!x428480y401120
*2232 xofiller!SHFILL1_RVT!x430000y401120
*2233 xofiller!SHFILL1_RVT!x431520y401120
*2234 xofiller!SHFILL1_RVT!x433040y401120
*2235 xofiller!SHFILL1_RVT!x454320y401120
*2236 xofiller!SHFILL1_RVT!x455840y401120
*2237 xofiller!SHFILL1_RVT!x457360y401120
*2238 xofiller!SHFILL1_RVT!x458880y401120
*2239 xofiller!SHFILL1_RVT!x460400y401120
*2240 xofiller!SHFILL1_RVT!x461920y401120
*2241 xofiller!SHFILL1_RVT!x463440y401120
*2242 xofiller!SHFILL1_RVT!x464960y401120
*2243 xofiller!SHFILL1_RVT!x466480y401120
*2244 xofiller!SHFILL1_RVT!x57600y417840
*2245 xofiller!SHFILL1_RVT!x59120y417840
*2246 xofiller!SHFILL1_RVT!x60640y417840
*2247 xofiller!SHFILL1_RVT!x62160y417840
*2248 xofiller!SHFILL1_RVT!x63680y417840
*2249 xofiller!SHFILL1_RVT!x72800y417840
*2250 xofiller!SHFILL1_RVT!x74320y417840
*2251 xofiller!SHFILL1_RVT!x75840y417840
*2252 xofiller!SHFILL1_RVT!x77360y417840
*2253 xofiller!SHFILL1_RVT!x78880y417840
*2254 xofiller!SHFILL1_RVT!x80400y417840
*2255 xofiller!SHFILL1_RVT!x81920y417840
*2256 xofiller!SHFILL1_RVT!x83440y417840
*2257 xofiller!SHFILL1_RVT!x103200y417840
*2258 xofiller!SHFILL1_RVT!x194400y417840
*2259 xofiller!SHFILL1_RVT!x240000y417840
*2260 xofiller!SHFILL1_RVT!x241520y417840
*2261 xofiller!SHFILL1_RVT!x243040y417840
*2262 xofiller!SHFILL1_RVT!x244560y417840
*2263 xofiller!SHFILL1_RVT!x246080y417840
*2264 xofiller!SHFILL1_RVT!x247600y417840
*2265 xofiller!SHFILL1_RVT!x249120y417840
*2266 xofiller!SHFILL1_RVT!x250640y417840
*2267 xofiller!SHFILL1_RVT!x252160y417840
*2268 xofiller!SHFILL1_RVT!x253680y417840
*2269 xofiller!SHFILL1_RVT!x255200y417840
*2270 xofiller!SHFILL1_RVT!x256720y417840
*2271 xofiller!SHFILL1_RVT!x258240y417840
*2272 xofiller!SHFILL1_RVT!x259760y417840
*2273 xofiller!SHFILL1_RVT!x261280y417840
*2274 xofiller!SHFILL1_RVT!x262800y417840
*2275 xofiller!SHFILL1_RVT!x284080y417840
*2276 xofiller!SHFILL1_RVT!x285600y417840
*2277 xofiller!SHFILL1_RVT!x287120y417840
*2278 xofiller!SHFILL1_RVT!x288640y417840
*2279 xofiller!SHFILL1_RVT!x290160y417840
*2280 xofiller!SHFILL1_RVT!x314480y417840
*2281 xofiller!SHFILL1_RVT!x316000y417840
*2282 xofiller!SHFILL1_RVT!x317520y417840
*2283 xofiller!SHFILL1_RVT!x319040y417840
*2284 xofiller!SHFILL1_RVT!x320560y417840
*2285 xofiller!SHFILL1_RVT!x322080y417840
*2286 xofiller!SHFILL1_RVT!x323600y417840
*2287 xofiller!SHFILL1_RVT!x338800y417840
*2288 xofiller!SHFILL1_RVT!x340320y417840
*2289 xofiller!SHFILL1_RVT!x341840y417840
*2290 xofiller!SHFILL1_RVT!x343360y417840
*2291 xofiller!SHFILL1_RVT!x360080y417840
*2292 xofiller!SHFILL1_RVT!x361600y417840
*2293 xofiller!SHFILL1_RVT!x363120y417840
*2294 xofiller!SHFILL1_RVT!x364640y417840
*2295 xofiller!SHFILL1_RVT!x420880y417840
*2296 xofiller!SHFILL1_RVT!x422400y417840
*2297 xofiller!SHFILL1_RVT!x443680y417840
*2298 xofiller!SHFILL1_RVT!x445200y417840
*2299 xofiller!SHFILL1_RVT!x475600y417840
*2300 xofiller!SHFILL1_RVT!x50000y434560
*2301 xofiller!SHFILL1_RVT!x51520y434560
*2302 xofiller!SHFILL1_RVT!x53040y434560
*2303 xofiller!SHFILL1_RVT!x54560y434560
*2304 xofiller!SHFILL1_RVT!x56080y434560
*2305 xofiller!SHFILL1_RVT!x57600y434560
*2306 xofiller!SHFILL1_RVT!x59120y434560
*2307 xofiller!SHFILL1_RVT!x60640y434560
*2308 xofiller!SHFILL1_RVT!x62160y434560
*2309 xofiller!SHFILL1_RVT!x71280y434560
*2310 xofiller!SHFILL1_RVT!x72800y434560
*2311 xofiller!SHFILL1_RVT!x74320y434560
*2312 xofiller!SHFILL1_RVT!x75840y434560
*2313 xofiller!SHFILL1_RVT!x77360y434560
*2314 xofiller!SHFILL1_RVT!x88000y434560
*2315 xofiller!SHFILL1_RVT!x89520y434560
*2316 xofiller!SHFILL1_RVT!x91040y434560
*2317 xofiller!SHFILL1_RVT!x92560y434560
*2318 xofiller!SHFILL1_RVT!x94080y434560
*2319 xofiller!SHFILL1_RVT!x95600y434560
*2320 xofiller!SHFILL1_RVT!x97120y434560
*2321 xofiller!SHFILL1_RVT!x98640y434560
*2322 xofiller!SHFILL1_RVT!x100160y434560
*2323 xofiller!SHFILL1_RVT!x101680y434560
*2324 xofiller!SHFILL1_RVT!x147280y434560
*2325 xofiller!SHFILL1_RVT!x148800y434560
*2326 xofiller!SHFILL1_RVT!x150320y434560
*2327 xofiller!SHFILL1_RVT!x151840y434560
*2328 xofiller!SHFILL1_RVT!x153360y434560
*2329 xofiller!SHFILL1_RVT!x154880y434560
*2330 xofiller!SHFILL1_RVT!x156400y434560
*2331 xofiller!SHFILL1_RVT!x165520y434560
*2332 xofiller!SHFILL1_RVT!x167040y434560
*2333 xofiller!SHFILL1_RVT!x168560y434560
*2334 xofiller!SHFILL1_RVT!x170080y434560
*2335 xofiller!SHFILL1_RVT!x171600y434560
*2336 xofiller!SHFILL1_RVT!x173120y434560
*2337 xofiller!SHFILL1_RVT!x174640y434560
*2338 xofiller!SHFILL1_RVT!x176160y434560
*2339 xofiller!SHFILL1_RVT!x177680y434560
*2340 xofiller!SHFILL1_RVT!x179200y434560
*2341 xofiller!SHFILL1_RVT!x180720y434560
*2342 xofiller!SHFILL1_RVT!x182240y434560
*2343 xofiller!SHFILL1_RVT!x183760y434560
*2344 xofiller!SHFILL1_RVT!x185280y434560
*2345 xofiller!SHFILL1_RVT!x186800y434560
*2346 xofiller!SHFILL1_RVT!x188320y434560
*2347 xofiller!SHFILL1_RVT!x189840y434560
*2348 xofiller!SHFILL1_RVT!x191360y434560
*2349 xofiller!SHFILL1_RVT!x192880y434560
*2350 xofiller!SHFILL1_RVT!x194400y434560
*2351 xofiller!SHFILL1_RVT!x195920y434560
*2352 xofiller!SHFILL1_RVT!x197440y434560
*2353 xofiller!SHFILL1_RVT!x198960y434560
*2354 xofiller!SHFILL1_RVT!x200480y434560
*2355 xofiller!SHFILL1_RVT!x202000y434560
*2356 xofiller!SHFILL1_RVT!x203520y434560
*2357 xofiller!SHFILL1_RVT!x205040y434560
*2358 xofiller!SHFILL1_RVT!x206560y434560
*2359 xofiller!SHFILL1_RVT!x208080y434560
*2360 xofiller!SHFILL1_RVT!x217200y434560
*2361 xofiller!SHFILL1_RVT!x218720y434560
*2362 xofiller!SHFILL1_RVT!x220240y434560
*2363 xofiller!SHFILL1_RVT!x221760y434560
*2364 xofiller!SHFILL1_RVT!x223280y434560
*2365 xofiller!SHFILL1_RVT!x224800y434560
*2366 xofiller!SHFILL1_RVT!x226320y434560
*2367 xofiller!SHFILL1_RVT!x227840y434560
*2368 xofiller!SHFILL1_RVT!x229360y434560
*2369 xofiller!SHFILL1_RVT!x230880y434560
*2370 xofiller!SHFILL1_RVT!x232400y434560
*2371 xofiller!SHFILL1_RVT!x253680y434560
*2372 xofiller!SHFILL1_RVT!x264320y434560
*2373 xofiller!SHFILL1_RVT!x265840y434560
*2374 xofiller!SHFILL1_RVT!x267360y434560
*2375 xofiller!SHFILL1_RVT!x268880y434560
*2376 xofiller!SHFILL1_RVT!x270400y434560
*2377 xofiller!SHFILL1_RVT!x271920y434560
*2378 xofiller!SHFILL1_RVT!x273440y434560
*2379 xofiller!SHFILL1_RVT!x274960y434560
*2380 xofiller!SHFILL1_RVT!x276480y434560
*2381 xofiller!SHFILL1_RVT!x278000y434560
*2382 xofiller!SHFILL1_RVT!x279520y434560
*2383 xofiller!SHFILL1_RVT!x281040y434560
*2384 xofiller!SHFILL1_RVT!x282560y434560
*2385 xofiller!SHFILL1_RVT!x284080y434560
*2386 xofiller!SHFILL1_RVT!x300800y434560
*2387 xofiller!SHFILL1_RVT!x302320y434560
*2388 xofiller!SHFILL1_RVT!x303840y434560
*2389 xofiller!SHFILL1_RVT!x305360y434560
*2390 xofiller!SHFILL1_RVT!x322080y434560
*2391 xofiller!SHFILL1_RVT!x369200y434560
*2392 xofiller!SHFILL1_RVT!x370720y434560
*2393 xofiller!SHFILL1_RVT!x372240y434560
*2394 xofiller!SHFILL1_RVT!x373760y434560
*2395 xofiller!SHFILL1_RVT!x375280y434560
*2396 xofiller!SHFILL1_RVT!x376800y434560
*2397 xofiller!SHFILL1_RVT!x378320y434560
*2398 xofiller!SHFILL1_RVT!x379840y434560
*2399 xofiller!SHFILL1_RVT!x381360y434560
*2400 xofiller!SHFILL1_RVT!x382880y434560
*2401 xofiller!SHFILL1_RVT!x384400y434560
*2402 xofiller!SHFILL1_RVT!x385920y434560
*2403 xofiller!SHFILL1_RVT!x387440y434560
*2404 xofiller!SHFILL1_RVT!x388960y434560
*2405 xofiller!SHFILL1_RVT!x390480y434560
*2406 xofiller!SHFILL1_RVT!x392000y434560
*2407 xofiller!SHFILL1_RVT!x393520y434560
*2408 xofiller!SHFILL1_RVT!x395040y434560
*2409 xofiller!SHFILL1_RVT!x396560y434560
*2410 xofiller!SHFILL1_RVT!x398080y434560
*2411 xofiller!SHFILL1_RVT!x399600y434560
*2412 xofiller!SHFILL1_RVT!x401120y434560
*2413 xofiller!SHFILL1_RVT!x402640y434560
*2414 xofiller!SHFILL1_RVT!x404160y434560
*2415 xofiller!SHFILL1_RVT!x405680y434560
*2416 xofiller!SHFILL1_RVT!x407200y434560
*2417 xofiller!SHFILL1_RVT!x408720y434560
*2418 xofiller!SHFILL1_RVT!x410240y434560
*2419 xofiller!SHFILL1_RVT!x411760y434560
*2420 xofiller!SHFILL1_RVT!x413280y434560
*2421 xofiller!SHFILL1_RVT!x414800y434560
*2422 xofiller!SHFILL1_RVT!x416320y434560
*2423 xofiller!SHFILL1_RVT!x417840y434560
*2424 xofiller!SHFILL1_RVT!x419360y434560
*2425 xofiller!SHFILL1_RVT!x420880y434560
*2426 xofiller!SHFILL1_RVT!x422400y434560
*2427 xofiller!SHFILL1_RVT!x423920y434560
*2428 xofiller!SHFILL1_RVT!x425440y434560
*2429 xofiller!SHFILL1_RVT!x426960y434560
*2430 xofiller!SHFILL1_RVT!x428480y434560
*2431 xofiller!SHFILL1_RVT!x430000y434560
*2432 xofiller!SHFILL1_RVT!x431520y434560
*2433 xofiller!SHFILL1_RVT!x433040y434560
*2434 xofiller!SHFILL1_RVT!x434560y434560
*2435 xofiller!SHFILL1_RVT!x436080y434560
*2436 xofiller!SHFILL1_RVT!x437600y434560
*2437 xofiller!SHFILL1_RVT!x439120y434560
*2438 xofiller!SHFILL1_RVT!x440640y434560
*2439 xofiller!SHFILL1_RVT!x442160y434560
*2440 xofiller!SHFILL1_RVT!x443680y434560
*2441 xofiller!SHFILL1_RVT!x445200y434560
*2442 xofiller!SHFILL1_RVT!x446720y434560
*2443 xofiller!SHFILL1_RVT!x448240y434560
*2444 xofiller!SHFILL1_RVT!x449760y434560
*2445 xofiller!SHFILL1_RVT!x451280y434560
*2446 xofiller!SHFILL1_RVT!x471040y434560
*2447 xofiller!SHFILL1_RVT!x472560y434560
*2448 xofiller!SHFILL1_RVT!x474080y434560
*2449 xofiller!SHFILL1_RVT!x475600y434560
*2450 xofiller!SHFILL1_RVT!x57600y451280
*2451 xofiller!SHFILL1_RVT!x59120y451280
*2452 xofiller!SHFILL1_RVT!x60640y451280
*2453 xofiller!SHFILL1_RVT!x62160y451280
*2454 xofiller!SHFILL1_RVT!x63680y451280
*2455 xofiller!SHFILL1_RVT!x65200y451280
*2456 xofiller!SHFILL1_RVT!x66720y451280
*2457 xofiller!SHFILL1_RVT!x68240y451280
*2458 xofiller!SHFILL1_RVT!x69760y451280
*2459 xofiller!SHFILL1_RVT!x71280y451280
*2460 xofiller!SHFILL1_RVT!x72800y451280
*2461 xofiller!SHFILL1_RVT!x74320y451280
*2462 xofiller!SHFILL1_RVT!x75840y451280
*2463 xofiller!SHFILL1_RVT!x77360y451280
*2464 xofiller!SHFILL1_RVT!x78880y451280
*2465 xofiller!SHFILL1_RVT!x80400y451280
*2466 xofiller!SHFILL1_RVT!x81920y451280
*2467 xofiller!SHFILL1_RVT!x83440y451280
*2468 xofiller!SHFILL1_RVT!x84960y451280
*2469 xofiller!SHFILL1_RVT!x86480y451280
*2470 xofiller!SHFILL1_RVT!x88000y451280
*2471 xofiller!SHFILL1_RVT!x89520y451280
*2472 xofiller!SHFILL1_RVT!x91040y451280
*2473 xofiller!SHFILL1_RVT!x92560y451280
*2474 xofiller!SHFILL1_RVT!x94080y451280
*2475 xofiller!SHFILL1_RVT!x95600y451280
*2476 xofiller!SHFILL1_RVT!x97120y451280
*2477 xofiller!SHFILL1_RVT!x113840y451280
*2478 xofiller!SHFILL1_RVT!x115360y451280
*2479 xofiller!SHFILL1_RVT!x116880y451280
*2480 xofiller!SHFILL1_RVT!x118400y451280
*2481 xofiller!SHFILL1_RVT!x119920y451280
*2482 xofiller!SHFILL1_RVT!x121440y451280
*2483 xofiller!SHFILL1_RVT!x122960y451280
*2484 xofiller!SHFILL1_RVT!x124480y451280
*2485 xofiller!SHFILL1_RVT!x126000y451280
*2486 xofiller!SHFILL1_RVT!x127520y451280
*2487 xofiller!SHFILL1_RVT!x129040y451280
*2488 xofiller!SHFILL1_RVT!x130560y451280
*2489 xofiller!SHFILL1_RVT!x132080y451280
*2490 xofiller!SHFILL1_RVT!x133600y451280
*2491 xofiller!SHFILL1_RVT!x135120y451280
*2492 xofiller!SHFILL1_RVT!x136640y451280
*2493 xofiller!SHFILL1_RVT!x138160y451280
*2494 xofiller!SHFILL1_RVT!x139680y451280
*2495 xofiller!SHFILL1_RVT!x141200y451280
*2496 xofiller!SHFILL1_RVT!x160960y451280
*2497 xofiller!SHFILL1_RVT!x180720y451280
*2498 xofiller!SHFILL1_RVT!x182240y451280
*2499 xofiller!SHFILL1_RVT!x206560y451280
*2500 xofiller!SHFILL1_RVT!x208080y451280
*2501 xofiller!SHFILL1_RVT!x209600y451280
*2502 xofiller!SHFILL1_RVT!x218720y451280
*2503 xofiller!SHFILL1_RVT!x238480y451280
*2504 xofiller!SHFILL1_RVT!x284080y451280
*2505 xofiller!SHFILL1_RVT!x285600y451280
*2506 xofiller!SHFILL1_RVT!x305360y451280
*2507 xofiller!SHFILL1_RVT!x306880y451280
*2508 xofiller!SHFILL1_RVT!x308400y451280
*2509 xofiller!SHFILL1_RVT!x309920y451280
*2510 xofiller!SHFILL1_RVT!x311440y451280
*2511 xofiller!SHFILL1_RVT!x312960y451280
*2512 xofiller!SHFILL1_RVT!x314480y451280
*2513 xofiller!SHFILL1_RVT!x316000y451280
*2514 xofiller!SHFILL1_RVT!x317520y451280
*2515 xofiller!SHFILL1_RVT!x319040y451280
*2516 xofiller!SHFILL1_RVT!x320560y451280
*2517 xofiller!SHFILL1_RVT!x322080y451280
*2518 xofiller!SHFILL1_RVT!x323600y451280
*2519 xofiller!SHFILL1_RVT!x325120y451280
*2520 xofiller!SHFILL1_RVT!x326640y451280
*2521 xofiller!SHFILL1_RVT!x328160y451280
*2522 xofiller!SHFILL1_RVT!x329680y451280
*2523 xofiller!SHFILL1_RVT!x331200y451280
*2524 xofiller!SHFILL1_RVT!x332720y451280
*2525 xofiller!SHFILL1_RVT!x334240y451280
*2526 xofiller!SHFILL1_RVT!x335760y451280
*2527 xofiller!SHFILL1_RVT!x337280y451280
*2528 xofiller!SHFILL1_RVT!x338800y451280
*2529 xofiller!SHFILL1_RVT!x340320y451280
*2530 xofiller!SHFILL1_RVT!x341840y451280
*2531 xofiller!SHFILL1_RVT!x343360y451280
*2532 xofiller!SHFILL1_RVT!x344880y451280
*2533 xofiller!SHFILL1_RVT!x354000y451280
*2534 xofiller!SHFILL1_RVT!x355520y451280
*2535 xofiller!SHFILL1_RVT!x357040y451280
*2536 xofiller!SHFILL1_RVT!x358560y451280
*2537 xofiller!SHFILL1_RVT!x360080y451280
*2538 xofiller!SHFILL1_RVT!x361600y451280
*2539 xofiller!SHFILL1_RVT!x363120y451280
*2540 xofiller!SHFILL1_RVT!x364640y451280
*2541 xofiller!SHFILL1_RVT!x366160y451280
*2542 xofiller!SHFILL1_RVT!x442160y451280
*2543 xofiller!SHFILL1_RVT!x443680y451280
*2544 xofiller!SHFILL1_RVT!x460400y451280
*2545 xofiller!SHFILL1_RVT!x461920y451280
*2546 xofiller!SHFILL1_RVT!x463440y451280
*2547 xofiller!SHFILL1_RVT!x464960y451280
*2548 xofiller!SHFILL1_RVT!x466480y451280
*2549 xofiller!SHFILL1_RVT!x468000y451280
*2550 fsm1/HFSNET_0
*2551 HFSNET_0
*2552 one_second
*2553 one_minute
*2554 load_new_c
*2555 load_new_a
*2556 shift
*2557 show_a
*2558 show_current_time
*2559 HFSNET_2
*2560 n92_CDR1
*2561 n93
*2562 n94
*2563 n95
*2564 n96
*2565 n97
*2566 n98
*2567 n99
*2568 n100
*2569 n101
*2570 ZCTSNET_9
*2571 ZCTSNET_10
*2572 n107
*2573 n108
*2574 n109
*2575 n110_CDR1
*2576 n111
*2577 n112
*2578 n113
*2579 n114
*2580 n115
*2581 n116
*2582 n117
*2583 n118
*2584 n119
*2585 n120
*2586 n121_CDR1
*2587 n122
*2588 ctosc_gls_0
*2589 ZBUF_324_0
*2590 ZBUF_91_0
*2591 n127
*2592 n128
*2593 n129
*2594 n130
*2595 n131
*2596 n132
*2597 n133
*2598 n134
*2599 n135
*2600 n136
*2601 n137
*2602 n138
*2603 n139
*2604 n140
*2605 n141
*2606 n142
*2607 n143
*2608 n144
*2609 n145
*2610 n146
*2611 n147
*2612 n148
*2613 key_buffer_ms_min[3]
*2614 key_buffer_ms_min[2]
*2615 key_buffer_ms_min[1]
*2616 key_buffer_ms_min[0]
*2617 key_buffer_ls_min[3]
*2618 key_buffer_ls_min[2]
*2619 key_buffer_ls_min[1]
*2620 key_buffer_ls_min[0]
*2621 key_buffer_ms_hr[3]
*2622 key_buffer_ms_hr[2]
*2623 key_buffer_ms_hr[1]
*2624 key_buffer_ms_hr[0]
*2625 key_buffer_ls_hr[3]
*2626 key_buffer_ls_hr[2]
*2627 key_buffer_ls_hr[1]
*2628 key_buffer_ls_hr[0]
*2629 current_time_ms_min[3]
*2630 current_time_ms_min[2]
*2631 current_time_ms_min[1]
*2632 current_time_ms_min[0]
*2633 current_time_ls_min[3]
*2634 current_time_ls_min[2]
*2635 current_time_ls_min[1]
*2636 current_time_ls_min[0]
*2637 current_time_ms_hr[3]
*2638 current_time_ms_hr[2]
*2639 current_time_ms_hr[1]
*2640 current_time_ms_hr[0]
*2641 current_time_ls_hr[3]
*2642 current_time_ls_hr[2]
*2643 current_time_ls_hr[1]
*2644 current_time_ls_hr[0]
*2645 alarm_time_ms_hr[3]
*2646 alarm_time_ms_hr[2]
*2647 alarm_time_ms_hr[1]
*2648 alarm_time_ms_hr[0]
*2649 alarm_time_ls_hr[3]
*2650 alarm_time_ls_hr[2]
*2651 alarm_time_ls_hr[1]
*2652 alarm_time_ls_hr[0]
*2653 alarm_time_ms_min[3]
*2654 alarm_time_ms_min[2]
*2655 alarm_time_ms_min[1]
*2656 alarm_time_ms_min[0]
*2657 alarm_time_ls_min[3]
*2658 alarm_time_ls_min[2]
*2659 alarm_time_ls_min[1]
*2660 alarm_time_ls_min[0]
*2661 HFSNET_1
*2662 tgen1/one_minute_reg
*2663 tgen1/N21
*2664 tgen1/N22
*2665 tgen1/N23
*2666 tgen1/N24
*2667 tgen1/N25
*2668 tgen1/N26
*2669 tgen1/N27
*2670 tgen1/N28
*2671 tgen1/N29
*2672 tgen1/N30
*2673 tgen1/N31
*2674 tgen1/N32
*2675 tgen1/N33
*2676 tgen1/N34
*2677 tgen1/N35
*2678 tgen1/N39
*2679 HFSNET_4
*2680 tgen1/n1
*2681 tgen1/n2
*2682 ZBUF_597_0
*2683 ZBUF_1182_0
*2684 tgen1/n5
*2685 tgen1/n6
*2686 tgen1/n9
*2687 tgen1/n10
*2688 tgen1/n14
*2689 tgen1/n15
*2690 tgen1/n18
*2691 tgen1/n21
*2692 tgen1/n22
*2693 tgen1/n25
*2694 tgen1/n26
*2695 tgen1/n29
*2696 tgen1/n30
*2697 tgen1/n33
*2698 tgen1/n34
*2699 tgen1/n37
*2700 tgen1/n41
*2701 tgen1/n45
*2702 tgen1/n48
*2703 tgen1/n49
*2704 tgen1/n50
*2705 tgen1/n51
*2706 tgen1/n54
*2707 tgen1/n55
*2708 tgen1/n56
*2709 tgen1/count[13]
*2710 tgen1/count[12]
*2711 tgen1/count[11]
*2712 tgen1/count[10]
*2713 tgen1/count[9]
*2714 tgen1/count[8]
*2715 tgen1/count[7]
*2716 tgen1/count[6]
*2717 tgen1/count[5]
*2718 tgen1/count[4]
*2719 tgen1/count[3]
*2720 tgen1/count[2]
*2721 tgen1/count[1]
*2722 tgen1/count[0]
*2723 count1/n91
*2724 count1/n92
*2725 count1/n93
*2726 count1/n94
*2727 count1/n95
*2728 count1/n96
*2729 count1/n97
*2730 count1/n98
*2731 count1/n99
*2732 count1/n100
*2733 count1/n101
*2734 count1/n102
*2735 count1/n103
*2736 count1/n104
*2737 count1/n105
*2738 count1/n106
*2739 count1/n1_CDR1
*2740 count1/n2_CDR1
*2741 count1/n3
*2742 count1/n4
*2743 count1/n5
*2744 count1/n6
*2745 count1/n9
*2746 count1/n10
*2747 count1/n11
*2748 count1/n12
*2749 count1/n13
*2750 count1/n14
*2751 count1/n15
*2752 count1/n16
*2753 count1/n17
*2754 count1/n18
*2755 count1/n19
*2756 count1/n20
*2757 count1/n21
*2758 count1/n22
*2759 count1/n23
*2760 count1/n24
*2761 count1/n25
*2762 count1/n27
*2763 count1/n28
*2764 count1/n29
*2765 count1/n30
*2766 count1/n31
*2767 count1/n32
*2768 count1/n33
*2769 count1/n34
*2770 count1/n36
*2771 count1/n37
*2772 count1/n38
*2773 count1/n42
*2774 count1/n43
*2775 count1/n44
*2776 count1/n45
*2777 count1/n46
*2778 HFSNET_3
*2779 count1/n48
*2780 count1/n51
*2781 count1/n52
*2782 count1/n53
*2783 count1/n54
*2784 count1/n55
*2785 count1/n56
*2786 count1/n57
*2787 count1/n58
*2788 count1/n59
*2789 count1/n60
*2790 count1/n61
*2791 count1/n62
*2792 count1/n63
*2793 count1/n64
*2794 count1/n66
*2795 count1/n67
*2796 count1/n68
*2797 count1/n69
*2798 count1/n70
*2799 count1/n71
*2800 count1/n72
*2801 count1/n73
*2802 count1/n74
*2803 count1/n76
*2804 count1/n77
*2805 count1/n78
*2806 count1/n79
*2807 count1/n80
*2808 count1/n81
*2809 alreg1/n3
*2810 alreg1/n5
*2811 alreg1/n7
*2812 alreg1/n9
*2813 alreg1/n11
*2814 alreg1/n13
*2815 alreg1/n15
*2816 alreg1/n17
*2817 alreg1/n19
*2818 alreg1/n21
*2819 alreg1/n23
*2820 alreg1/n25
*2821 alreg1/n27
*2822 alreg1/n29
*2823 alreg1/n31
*2824 alreg1/n33
*2825 alreg1/HFSNET_0
*2826 keyreg1/HFSNET_0
*2827 keyreg1/n3
*2828 keyreg1/n5
*2829 keyreg1/n7
*2830 keyreg1/n9
*2831 keyreg1/n11
*2832 keyreg1/n13
*2833 keyreg1/n15
*2834 keyreg1/n17
*2835 keyreg1/n19
*2836 keyreg1/n21
*2837 keyreg1/n23
*2838 keyreg1/n25
*2839 keyreg1/n27
*2840 keyreg1/n29
*2841 keyreg1/n31
*2842 keyreg1/n33
*2843 keyreg1/HFSNET_1
*2844 alreg1/HFSNET_1
*2845 fsm1/n60
*2846 fsm1/n61
*2847 fsm1/n62
*2848 fsm1/n63
*2849 fsm1/n64
*2850 fsm1/n65
*2851 fsm1/n66
*2852 fsm1/n67
*2853 alreg1/HFSNET_2
*2854 fsm1/n4
*2855 fsm1/n6
*2856 fsm1/n10
*2857 fsm1/n11
*2858 fsm1/n12
*2859 fsm1/n13
*2860 fsm1/n14
*2861 fsm1/n15
*2862 fsm1/n16
*2863 fsm1/n17
*2864 fsm1/n18
*2865 fsm1/n19
*2866 fsm1/n20
*2867 fsm1/n21
*2868 fsm1/n22
*2869 fsm1/n23
*2870 fsm1/n24
*2871 fsm1/n26
*2872 fsm1/n27
*2873 fsm1/n28
*2874 fsm1/n29
*2875 fsm1/n30
*2876 fsm1/n31
*2877 fsm1/n32
*2878 fsm1/n33
*2879 fsm1/n34
*2880 fsm1/n35
*2881 fsm1/n36
*2882 fsm1/n37
*2883 fsm1/n38
*2884 fsm1/n39
*2885 fsm1/n41
*2886 fsm1/n42
*2887 fsm1/n43
*2888 fsm1/n44
*2889 fsm1/n45
*2890 fsm1/n46
*2891 fsm1/n47
*2892 fsm1/n48
*2893 fsm1/n50
*2894 fsm1/count1[3]
*2895 fsm1/count1[2]
*2896 fsm1/count1[1]
*2897 fsm1/count1[0]
*2898 fsm1/pre_state[2]
*2899 fsm1/pre_state[1]
*2900 fsm1/pre_state[0]
*2901 fsm1/count2[3]
*2902 fsm1/count2[2]
*2903 fsm1/count2[1]
*2904 fsm1/count2[0]
*2905 fsm1/next_state[2]
*2906 fsm1/next_state[1]
*2907 fsm1/next_state[0]
*2908 count1/tmp_net2
*2909 HFSNET_6
*2910 count1/tmp_net3
*2911 tgen1/tmp_net4
*2912 tgen1/tmp_net5
*2913 count1/tmp_net6
*2914 count1/tmp_net7
*2915 tmp_net8
*2916 tmp_net9
*2917 tmp_net10
*2918 tmp_net11
*2919 tmp_net12
*2920 tmp_net13

*PORTS

*1 I *C 16.096 0.143
*2 I *C 52.569 32.664
*3 I *C 52.569 1.960
*4 I *C 22.328 0.143
*5 I *C 24.456 0.143
*6 I *C 6.216 0.143
*7 I *C 52.569 29.928
*8 I *C 26.584 0.143
*9 I *C 0.143 18.376
*10 O *C 36.312 51.657
*11 O *C 0.143 1.960
*12 O *C 0.143 30.536
*13 O *C 10.320 51.657
*14 O *C 8.344 0.143
*15 O *C 10.472 0.143
*16 O *C 49.688 51.657
*17 O *C 0.143 22.936
*18 O *C 28.712 0.143
*19 O *C 30.840 0.143
*20 O *C 37.376 0.143
*21 O *C 52.569 47.256
*22 O *C 0.143 32.968
*23 O *C 39.504 0.143
*24 O *C 41.632 0.143
*25 O *C 49.080 0.143
*26 O *C 43.760 0.143
*27 O *C 51.208 0.143
*28 O *C 52.569 7.736
*29 O *C 0.143 39.352
*30 O *C 6.368 51.657
*31 O *C 52.569 9.864
*32 O *C 0.143 20.504
*33 O *C 12.600 51.657
*34 O *C 52.569 27.800
*35 O *C 0.143 46.344
*36 O *C 35.096 0.143
*37 O *C 46.192 0.143
*38 O *C 0.143 26.280
*39 O *C 18.224 0.143
*40 O *C 32.968 0.143
*41 O *C 0.143 28.408
*42 O *C 13.968 0.143
*43 I *C 26.356 25.900
*44 I *C 26.356 25.900

*D_NET *2550 1.536287 //LENGTH 16.477 LUMPCC 0 DR

*CONN
*I *499:Y O *L 0 *C 47.560 37.376
*I *170:A4 I *L 0.514778 *C 45.773 39.200
*I *494:A2 I *L 0.509119 *C 45.614 42.416
*I *493:A3 I *L 0.548175 *C 45.280 46.648
*I *169:A4 I *L 0.514778 *C 46.496 44.368
*I *456:A2 I *L 0.466516 *C 46.952 39.352
*I *431:A2 I *L 0.466516 *C 47.104 40.872
*N *2550:7 *C 47.104 40.871
*N *2550:8 *C 46.952 39.366
*N *2550:9 *C 46.952 39.656
*N *2550:10 *C 46.496 44.355
*N *2550:11 *C 45.280 46.635
*N *2550:12 *C 45.280 44.230
*N *2550:13 *C 45.294 44.216
*N *2550:14 *C 46.483 44.216
*N *2550:15 *C 46.496 44.215
*N *2550:16 *C 46.496 42.392
*N *2550:17 *C 45.873 42.392
*N *2550:18 *C 45.888 42.392
*N *2550:19 *C 45.876 39.200
*N *2550:20 *C 45.888 39.214
*N *2550:21 *C 45.888 39.656
*N *2550:22 *C 45.902 39.656
*N *2550:23 *C 47.091 39.656
*N *2550:24 *C 47.104 39.669
*N *2550:25 *C 47.560 39.656
*N *2550:26 *C 47.560 37.390

*CAP
0 *499:Y 0.001
1 *170:A4 0.01639627
2 *494:A2 0.02284521
3 *493:A3 0.001
4 *169:A4 0.001
5 *456:A2 0.001
6 *431:A2 0.001
7 *2550:7 0.05292751
8 *2550:8 0.01647556
9 *2550:9 0.027123
10 *2550:10 0.01062916
11 *2550:11 0.1399095
12 *2550:12 0.1413422
13 *2550:13 0.0513807
14 *2550:14 0.0513807
15 *2550:15 0.1109678
16 *2550:16 0.1269925
17 *2550:17 0.02076981
18 *2550:18 0.1626885
19 *2550:19 0.01432087
20 *2550:20 0.02627142
21 *2550:21 0.162652
22 *2550:22 0.05033883
23 *2550:23 0.05033883
24 *2550:24 0.07942863
25 *2550:25 0.1091559
26 *2550:26 0.08695218

*RES
0 *499:Y *2550:26 1
1 *2550:26 *2550:25 4.047322
2 *2550:7 *431:A2 1
3 *2550:8 *456:A2 1
4 *2550:10 *169:A4 1
5 *2550:24 *2550:23 0.5
6 *2550:24 *2550:9 0.2714286
7 *2550:24 *2550:7 2.145536
8 *2550:23 *2550:22 2.123214
9 *2550:21 *2550:20 0.7901786
10 *2550:21 *2550:18 4.885715
11 *2550:22 *2550:21 0.5
12 *2550:19 *170:A4 0.1716667
13 *2550:20 *2550:19 1
14 *2550:17 *494:A2 0.5180001
15 *2550:18 *2550:17 1
16 *2550:18 *2550:16 1.085714
17 *2550:15 *2550:14 0.5
18 *2550:15 *2550:10 0.2341667
19 *2550:14 *2550:13 2.123214
20 *2550:12 *2550:11 4.294643
21 *2550:13 *2550:12 0.5
22 *2550:11 *493:A3 1
23 *2550:16 *2550:15 3.255357
24 *2550:9 *2550:8 0.5187501
25 *2550:25 *2550:24 0.8142858

*END

*D_NET *4 2.583249 //LENGTH 24.881 LUMPCC 0 DR

*CONN
*P *4 I *L 0 *C 22.328 0.273
*I *386:A2 I *L 0.501039 *C 20.048 12.296
*I *465:A2 I *L 0.466516 *C 23.544 20.808
*N *4:3 *C 23.544 20.676
*N *4:4 *C 23.544 20.796
*N *4:5 *C 23.530 20.808
*N *4:6 *C 22.494 20.808
*N *4:7 *C 22.480 20.794
*N *4:8 *C 22.480 12.296
*N *4:9 *C 20.048 12.114
*N *4:10 *C 20.048 12.284
*N *4:11 *C 20.062 12.296
*N *4:12 *C 22.315 12.296
*N *4:13 *C 22.328 12.296

*CAP
0 *4 0.5330378
1 *386:A2 0.001
2 *465:A2 0.001
3 *4:3 0.01822822
4 *4:4 0.0102472
5 *4:5 0.06143498
6 *4:6 0.06341183
7 *4:7 0.5376047
8 *4:8 0.5490164
9 *4:9 0.01621774
10 *4:10 0.01004063
11 *4:11 0.1211521
12 *4:12 0.1211521
13 *4:13 0.5397051

*RES
0 *4 *4:13 21.46964
1 *4:7 *4:6 0.5
2 *4:6 *4:5 1.851786
3 *4:4 *465:A2 1
4 *4:4 *4:3 0.1991667
5 *4:5 *4:4 0.5
6 *4:13 *4:12 0.5
7 *4:13 *4:8 0.2714286
8 *4:12 *4:11 4.023214
9 *4:10 *386:A2 1
10 *4:10 *4:9 0.2825001
11 *4:11 *4:10 0.5
12 *4:8 *4:7 15.17589

*END

*D_NET *10 0.5016877 //LENGTH 6.694 LUMPCC 0 DR

*CONN
*I *135:Y O *L 0 *C 35.248 46.192
*P *10 O *L 0.05 *C 36.312 51.542
*N *10:2 *C 36.312 46.358
*N *10:3 *C 36.299 46.344
*N *10:4 *C 35.262 46.344
*N *10:5 *C 35.248 46.332
*N *10:6 *C 35.248 46.192

*CAP
0 *135:Y 0.001
1 *10 0.2076824
2 *10:2 0.2053102
3 *10:3 0.03569882
4 *10:4 0.03569882
5 *10:5 0.008865072
6 *10:6 0.007432393

*RES
0 *135:Y *10:6 1
1 *10:6 *10:5 0.2325
2 *10:5 *10:4 0.5
3 *10:4 *10:3 1.851786
4 *10:2 *10 9.258036
5 *10:3 *10:2 0.5

*END

*D_NET *11 0.6398905 //LENGTH 9.579 LUMPCC 0 DR

*CONN
*I *134:Y O *L 0 *C 5.152 6.064
*P *11 O *L 0.05 *C 0.258 1.960
*N *11:2 *C 5.291 1.960
*N *11:3 *C 5.304 1.974
*N *11:4 *C 5.304 5.912
*N *11:5 *C 5.152 5.912
*N *11:6 *C 5.152 6.051

*CAP
0 *134:Y 0.001
1 *11 0.1498689
2 *11:2 0.1474966
3 *11:3 0.1515363
4 *11:4 0.1615183
5 *11:5 0.01994252
6 *11:6 0.008527922

*RES
0 *134:Y *11:6 1
1 *11:6 *11:5 0.2473214
2 *11:3 *11:2 0.5
3 *11:2 *11 8.986609
4 *11:5 *11:4 0.2714286
5 *11:4 *11:3 7.033036

*END

*D_NET *14 2.623831 //LENGTH 35.562 LUMPCC 0 DR

*CONN
*I *53:Y O *L 0 *C 30.373 11.232
*P *14 O *L 0.05 *C 8.344 0.258
*I *54:A I *L 0.582888 *C 28.712 12.600
*N *14:3 *C 28.530 12.600
*N *14:4 *C 28.712 12.418
*N *14:5 *C 28.712 12.588
*N *14:6 *C 28.700 12.600
*N *14:7 *C 28.712 12.587
*N *14:8 *C 8.344 1.643
*N *14:9 *C 8.357 1.656
*N *14:10 *C 28.699 1.656
*N *14:11 *C 28.712 1.669
*N *14:12 *C 28.712 11.384
*N *14:13 *C 28.726 11.384
*N *14:14 *C 30.219 11.384
*N *14:15 *C 30.232 11.372
*N *14:16 *C 30.232 11.232
*N *14:17 *C 30.245 11.232

*CAP
0 *53:Y 0.01700424
1 *14 0.05075224
2 *54:A 0.001
3 *14:3 0.01313551
4 *14:4 0.01554045
5 *14:5 0.009363332
6 *14:6 0.008391621
7 *14:7 0.04668995
8 *14:8 0.04838003
9 *14:9 0.7187214
10 *14:10 0.7187219
11 *14:11 0.3594902
12 *14:12 0.4085519
13 *14:13 0.07921838
14 *14:14 0.07921784
15 *14:15 0.01721288
16 *14:16 0.0175097
17 *14:17 0.01492884

*RES
0 *53:Y *14:17 0.215
1 *14:13 *14:12 0.5
2 *14:12 *14:11 17.34732
3 *14:12 *14:7 2.147322
4 *14:15 *14:14 0.5
5 *14:14 *14:13 2.666071
6 *14:17 *14:16 1
7 *14:16 *14:15 0.2325
8 *14:6 *14:5 0.5
9 *14:6 *14:3 0.2825
10 *14:7 *14:6 0.5
11 *14:5 *54:A 1
12 *14:5 *14:4 0.2825
13 *14:10 *14:9 36.32322
14 *14:11 *14:10 0.5
15 *14:8 *14 2.472321
16 *14:9 *14:8 0.5

*END

*D_NET *20 0.5063875 //LENGTH 6.993 LUMPCC 0 DR

*CONN
*I *129:Y O *L 0 *C 36.464 6.064
*P *20 O *L 0.05 *C 37.376 0.258
*N *20:2 *C 37.376 4.987
*N *20:3 *C 37.363 5.000
*N *20:4 *C 36.477 5.000
*N *20:5 *C 36.464 5.014
*N *20:6 *C 36.464 6.051

*CAP
0 *129:Y 0.001
1 *20 0.1714384
2 *20:2 0.1690662
3 *20:3 0.0334787
4 *20:4 0.0334787
5 *20:5 0.04967912
6 *20:6 0.04824644

*RES
0 *129:Y *20:6 1
1 *20:6 *20:5 1.851786
2 *20:5 *20:4 0.5
3 *20:4 *20:3 1.580357
4 *20:2 *20 8.44375
5 *20:3 *20:2 0.5

*END

*D_NET *26 0.5963191 //LENGTH 7.910 LUMPCC 0 DR

*CONN
*I *127:Y O *L 0 *C 45.584 6.064
*P *26 O *L 0.05 *C 43.760 0.258
*N *26:2 *C 43.760 5.899
*N *26:3 *C 43.774 5.912
*N *26:4 *C 45.571 5.912
*N *26:5 *C 45.584 5.912
*N *26:6 *C 45.584 6.051

*CAP
0 *127:Y 0.001
1 *26 0.2163907
2 *26:2 0.2140185
3 *26:3 0.07433796
4 *26:4 0.07433796
5 *26:5 0.008833381
6 *26:6 0.007400704

*RES
0 *127:Y *26:6 1
1 *26:6 *26:5 0.2325
2 *26:5 *26:4 0.5
3 *26:4 *26:3 3.208929
4 *26:2 *26 10.07232
5 *26:3 *26:2 0.5

*END

*D_NET *29 0.5984445 //LENGTH 8.555 LUMPCC 0 DR

*CONN
*I *124:Y O *L 0 *C 5.152 42.848
*P *29 O *L 0.05 *C 0.258 39.352
*N *29:2 *C 5.139 39.352
*N *29:3 *C 5.152 39.366
*N *29:4 *C 5.152 42.835

*CAP
0 *124:Y 0.001
1 *29 0.1510828
2 *29:2 0.1487106
3 *29:3 0.1495419
4 *29:4 0.1481092

*RES
0 *124:Y *29:4 1
1 *29:4 *29:3 6.194643
2 *29:3 *29:2 0.5
3 *29:2 *29 8.715179

*END

*D_NET *32 2.46244 //LENGTH 34.139 LUMPCC 0 DR

*CONN
*I *64:Y O *L 0 *C 10.472 43.912
*P *32 O *L 0.05 *C 0.258 20.504
*N *32:2 *C 10.472 43.730
*N *32:3 *C 0.883 20.504
*N *32:4 *C 0.896 20.518
*N *32:5 *C 0.896 43.899
*N *32:6 *C 0.910 43.912
*N *32:7 *C 10.459 43.912
*N *32:8 *C 10.472 43.900

*CAP
0 *64:Y 0.001
1 *32 0.0220041
2 *32:2 0.01208467
3 *32:3 0.01963188
4 *32:4 0.884747
5 *32:5 0.884747
6 *32:6 0.3161589
7 *32:7 0.3161589
8 *32:8 0.005907555

*RES
0 *64:Y *32:8 1
1 *32:8 *32:7 0.5
2 *32:8 *32:2 0.2825
3 *32:7 *32:6 17.05179
4 *32:5 *32:4 41.75178
5 *32:6 *32:5 0.5
6 *32:4 *32:3 0.5
7 *32:3 *32 1.115179

*END

*D_NET *35 0.3002084 //LENGTH 5.216 LUMPCC 0 DR

*CONN
*I *122:Y O *L 0 *C 5.152 46.192
*P *35 O *L 0.05 *C 0.258 46.344
*N *35:2 *C 5.139 46.344
*N *35:3 *C 5.152 46.332
*N *35:4 *C 5.152 46.192

*CAP
0 *122:Y 0.001
1 *35 0.1439189
2 *35:2 0.1415467
3 *35:3 0.007587762
4 *35:4 0.006155083

*RES
0 *122:Y *35:4 1
1 *35:4 *35:3 0.2325
2 *35:3 *35:2 0.5
3 *35:2 *35 8.715179

*END

*D_NET *39 2.701612 //LENGTH 26.601 LUMPCC 0 DR

*CONN
*I *108:Y O *L 0 *C 18.680 26.128
*P *39 O *L 0.05 *C 18.224 0.258
*N *39:2 *C 18.224 2.251
*N *39:3 *C 18.238 2.264
*N *39:4 *C 18.666 2.264
*N *39:5 *C 18.680 2.278
*N *39:6 *C 18.680 26.114

*CAP
0 *108:Y 0.001
1 *39 0.07675358
2 *39:2 0.07438137
3 *39:3 0.01681225
4 *39:4 0.01681225
5 *39:5 1.258643
6 *39:6 1.25721

*RES
0 *108:Y *39:6 1
1 *39:6 *39:5 42.56607
2 *39:5 *39:4 0.5
3 *39:4 *39:3 0.7660714
4 *39:2 *39 3.558036
5 *39:3 *39:2 0.5

*END

*D_NET *42 3.079374 //LENGTH 33.897 LUMPCC 0 DR

*CONN
*I *105:Y O *L 0 *C 28.408 19.440
*P *42 O *L 0.05 *C 13.968 0.258
*N *42:2 *C 13.968 18.971
*N *42:3 *C 13.982 18.984
*N *42:4 *C 28.395 18.984
*N *42:5 *C 28.408 18.998
*N *42:6 *C 28.408 19.427

*CAP
0 *105:Y 0.001
1 *42 0.9314692
2 *42:2 0.929097
3 *42:3 0.5881252
4 *42:4 0.5881252
5 *42:5 0.02149471
6 *42:6 0.02006204

*RES
0 *105:Y *42:6 1
1 *42:6 *42:5 0.7660715
2 *42:5 *42:4 0.5
3 *42:4 *42:3 25.7375
4 *42:2 *42 33.41518
5 *42:3 *42:2 0.5

*END

*D_NET *2553 4.150509 //LENGTH 42.667 LUMPCC 0 DR

*CONN
*I *312:Y O *L 0 *C 14.272 32.664
*I *505:A4 I *L 0.552216 *C 27.800 34.488
*I *272:A2 I *L 0.482724 *C 30.384 32.664
*I *278:A3 I *L 0.584801 *C 31.752 35.856
*I *275:A1 I *L 0.666174 *C 34.336 34.336
*I *314:A1 I *L 0.549073 *C 34.184 41.176
*I *319:A3 I *L 0.455637 *C 32.512 41.176
*I *313:A2 I *L 0.482724 *C 31.904 44.216
*I *262:A2 I *L 0.466516 *C 36.464 40.872
*N *2553:9 *C 14.272 32.482
*N *2553:10 *C 36.464 40.873
*N *2553:11 *C 36.464 41.163
*N *2553:12 *C 36.451 41.176
*N *2553:13 *C 31.904 44.203
*N *2553:14 *C 31.904 41.190
*N *2553:15 *C 31.918 41.176
*N *2553:16 *C 32.512 40.994
*N *2553:17 *C 32.512 41.163
*N *2553:18 *C 32.512 41.176
*N *2553:19 *C 34.184 41.176
*N *2553:20 *C 34.184 41.163
*N *2553:21 *C 34.336 34.349
*N *2553:22 *C 34.336 35.096
*N *2553:23 *C 34.184 35.096
*N *2553:24 *C 34.171 35.096
*N *2553:25 *C 31.752 35.843
*N *2553:26 *C 31.752 35.110
*N *2553:27 *C 31.752 35.096
*N *2553:28 *C 30.384 32.678
*N *2553:29 *C 30.384 35.083
*N *2553:30 *C 30.384 35.096
*N *2553:31 *C 27.648 35.096
*N *2553:32 *C 27.800 34.489
*N *2553:33 *C 27.800 34.792
*N *2553:34 *C 27.649 34.792
*N *2553:35 *C 27.648 34.793
*N *2553:36 *C 25.838 34.792
*N *2553:37 *C 25.824 34.779
*N *2553:38 *C 25.824 32.678
*N *2553:39 *C 25.811 32.664
*N *2553:40 *C 14.286 32.664
*N *2553:41 *C 14.272 32.651

*CAP
0 *312:Y 0.001
1 *505:A4 0.001
2 *272:A2 0.001
3 *278:A3 0.001
4 *275:A1 0.001
5 *314:A1 0.001
6 *319:A3 0.001
7 *313:A2 0.001
8 *262:A2 0.001
9 *2553:9 0.01268737
10 *2553:10 0.01527575
11 *2553:11 0.01653547
12 *2553:12 0.0949648
13 *2553:13 0.1352049
14 *2553:14 0.1366376
15 *2553:15 0.02690357
16 *2553:16 0.01774613
17 *2553:17 0.01156901
18 *2553:18 0.1011941
19 *2553:19 0.1672785
20 *2553:20 0.3184575
21 *2553:21 0.05256796
22 *2553:22 0.06517807
23 *2553:23 0.3330444
24 *2553:24 0.1124934
25 *2553:25 0.05146528
26 *2553:26 0.05289796
27 *2553:27 0.1715199
28 *2553:28 0.1481777
29 *2553:29 0.1496104
30 *2553:30 0.1817034
31 *2553:31 0.1382689
32 *2553:32 0.01748903
33 *2553:33 0.03041455
34 *2553:34 0.006748402
35 *2553:35 0.09744238
36 *2553:36 0.08422261
37 *2553:37 0.129141
38 *2553:38 0.129141
39 *2553:39 0.5645091
40 *2553:40 0.5645091
41 *2553:41 0.006510258

*RES
0 *312:Y *2553:41 1
1 *2553:11 *2553:10 0.5169643
2 *2553:12 *2553:11 0.5
3 *2553:10 *262:A2 1
4 *2553:21 *275:A1 1
5 *2553:20 *314:A1 1
6 *2553:20 *2553:19 0.5
7 *2553:19 *2553:18 2.985714
8 *2553:19 *2553:12 4.047322
9 *2553:17 *319:A3 1
10 *2553:17 *2553:16 0.2825
11 *2553:18 *2553:17 0.5
12 *2553:18 *2553:15 1.061607
13 *2553:14 *2553:13 5.380357
14 *2553:15 *2553:14 0.5
15 *2553:13 *313:A2 1
16 *2553:23 *2553:22 0.2714286
17 *2553:23 *2553:20 10.83304
18 *2553:24 *2553:23 0.5
19 *2553:26 *2553:25 1.308929
20 *2553:27 *2553:26 0.5
21 *2553:27 *2553:24 4.31875
22 *2553:25 *278:A3 1
23 *2553:29 *2553:28 4.294643
24 *2553:30 *2553:29 0.5
25 *2553:30 *2553:27 2.442857
26 *2553:28 *272:A2 1
27 *2553:34 *2553:33 0.2696429
28 *2553:35 *2553:34 0.5
29 *2553:35 *2553:31 0.5410715
30 *2553:32 *505:A4 1
31 *2553:37 *2553:36 0.5
32 *2553:36 *2553:35 3.233036
33 *2553:38 *2553:37 3.751786
34 *2553:39 *2553:38 0.5
35 *2553:41 *2553:40 0.5
36 *2553:41 *2553:9 0.2825
37 *2553:40 *2553:39 20.58036
38 *2553:33 *2553:32 0.5410715
39 *2553:22 *2553:21 1.333036
40 *2553:31 *2553:30 4.885715

*END

*D_NET *2557 1.092414 //LENGTH 13.114 LUMPCC 0 DR

*CONN
*I *425:Y O *L 0 *C 39.778 30.855
*I *45:A2 I *L 0.695384 *C 31.294 27.344
*I *46:A1 I *L 0.604822 *C 33.576 27.648
*N *2557:3 *C 39.352 30.658
*N *2557:4 *C 33.576 27.661
*N *2557:5 *C 31.296 27.370
*N *2557:6 *C 31.296 27.787
*N *2557:7 *C 31.309 27.800
*N *2557:8 *C 33.562 27.800
*N *2557:9 *C 33.576 27.814
*N *2557:10 *C 33.576 28.864
*N *2557:11 *C 34.336 28.864
*N *2557:12 *C 34.336 30.827
*N *2557:13 *C 34.349 30.840
*N *2557:14 *C 39.339 30.840
*N *2557:15 *C 39.352 30.828
*N *2557:16 *C 39.367 30.840

*CAP
0 *425:Y 0.02615146
1 *45:A2 0.001
2 *46:A1 0.001
3 *2557:3 0.01336294
4 *2557:4 0.01037399
5 *2557:5 0.02540169
6 *2557:6 0.02769912
7 *2557:7 0.09715555
8 *2557:8 0.09715555
9 *2557:9 0.07395554
10 *2557:10 0.09587805
11 *2557:11 0.1333174
12 *2557:12 0.097216
13 *2557:13 0.1798776
14 *2557:14 0.1798776
15 *2557:15 0.008915319
16 *2557:16 0.02407606

*RES
0 *425:Y *2557:16 0.8220001
1 *2557:12 *2557:11 3.504464
2 *2557:13 *2557:12 0.5
3 *2557:15 *2557:14 0.5
4 *2557:15 *2557:3 0.2825
5 *2557:14 *2557:13 8.908929
6 *2557:16 *2557:15 1
7 *2557:4 *46:A1 1
8 *2557:9 *2557:8 0.5
9 *2557:9 *2557:4 0.255
10 *2557:8 *2557:7 4.023215
11 *2557:6 *2557:5 0.74375
12 *2557:7 *2557:6 0.5
13 *2557:5 *45:A2 0.5
14 *2557:10 *2557:9 1.875893
15 *2557:11 *2557:10 1.357143

*END

*D_NET *2559 0.734063 //LENGTH 6.273 LUMPCC 0 DR

*CONN
*I *119:Y O *L 0 *C 37.944 26.154
*I *46:A2 I *L 0.61189 *C 33.424 27.496
*N *2559:2 *C 33.424 27.483
*N *2559:3 *C 33.424 27.206
*N *2559:4 *C 33.438 27.192
*N *2559:5 *C 37.819 27.192
*N *2559:6 *C 37.832 27.178
*N *2559:7 *C 37.832 26.142
*N *2559:8 *C 37.845 26.128

*CAP
0 *119:Y 0.01272468
1 *46:A2 0.001
2 *2559:2 0.02398657
3 *2559:3 0.02541925
4 *2559:4 0.2796154
5 *2559:5 0.2796154
6 *2559:6 0.05037777
7 *2559:7 0.05067458
8 *2559:8 0.01064928

*RES
0 *119:Y *2559:8 0.1658334
1 *2559:2 *46:A2 1
2 *2559:3 *2559:2 0.4946429
3 *2559:4 *2559:3 0.5
4 *2559:6 *2559:5 0.5
5 *2559:5 *2559:4 7.823215
6 *2559:8 *2559:7 1
7 *2559:7 *2559:6 1.851786

*END

*D_NET *2561 0.425244 //LENGTH 3.465 LUMPCC 0 DR

*CONN
*I *72:Y O *L 0 *C 32.816 20.656
*I *73:A1 I *L 0.494827 *C 33.272 20.808
*I *86:A4 I *L 0.514778 *C 33.880 19.136
*N *2561:3 *C 33.880 19.149
*N *2561:4 *C 33.880 20.794
*N *2561:5 *C 33.867 20.808
*N *2561:6 *C 33.272 20.626
*N *2561:7 *C 33.272 20.796
*N *2561:8 *C 33.272 20.808
*N *2561:9 *C 32.830 20.808
*N *2561:10 *C 32.816 20.796
*N *2561:11 *C 32.816 20.656

*CAP
0 *72:Y 0.001
1 *73:A1 0.001
2 *86:A4 0.001
3 *2561:3 0.1097704
4 *2561:4 0.1112031
5 *2561:5 0.03798435
6 *2561:6 0.0184867
7 *2561:7 0.01230958
8 *2561:8 0.07002131
9 *2561:9 0.02966474
10 *2561:10 0.01711825
11 *2561:11 0.01568557

*RES
0 *72:Y *2561:11 1
1 *2561:4 *2561:3 2.9375
2 *2561:5 *2561:4 0.5
3 *2561:3 *86:A4 1
4 *2561:7 *73:A1 1
5 *2561:7 *2561:6 0.2825
6 *2561:8 *2561:7 0.5
7 *2561:8 *2561:5 1.061607
8 *2561:10 *2561:9 0.5
9 *2561:9 *2561:8 0.7901786
10 *2561:11 *2561:10 0.2325

*END

*D_NET *2563 1.535135 //LENGTH 13.275 LUMPCC 0 DR

*CONN
*I *77:Y O *L 0 *C 36.738 8.800
*I *80:A1 I *L 0.529859 *C 32.816 17.768
*N *2563:2 *C 32.816 17.755
*N *2563:3 *C 32.816 10.790
*N *2563:4 *C 32.830 10.776
*N *2563:5 *C 36.451 10.776
*N *2563:6 *C 36.464 10.763
*N *2563:7 *C 36.464 8.814
*N *2563:8 *C 36.479 8.800

*CAP
0 *77:Y 0.01822602
1 *80:A1 0.001
2 *2563:2 0.4551844
3 *2563:3 0.4566171
4 *2563:4 0.1710025
5 *2563:5 0.1710025
6 *2563:6 0.1228273
7 *2563:7 0.1231241
8 *2563:8 0.01615062

*RES
0 *77:Y *2563:8 0.5180001
1 *2563:2 *80:A1 1
2 *2563:3 *2563:2 12.4375
3 *2563:4 *2563:3 0.5
4 *2563:6 *2563:5 0.5
5 *2563:5 *2563:4 6.466072
6 *2563:8 *2563:7 1
7 *2563:7 *2563:6 3.480357

*END

*D_NET *2567 0.4290791 //LENGTH 4.028 LUMPCC 0 DR

*CONN
*I *83:Y O *L 0 *C 44.672 7.280
*I *84:A3 I *L 0.557478 *C 45.736 6.824
*I *85:A3 I *L 0.539281 *C 45.432 8.952
*N *2567:3 *C 45.446 8.952
*N *2567:4 *C 45.584 8.952
*N *2567:5 *C 45.736 6.838
*N *2567:6 *C 45.736 7.128
*N *2567:7 *C 45.584 7.128
*N *2567:8 *C 45.571 7.128
*N *2567:9 *C 44.686 7.128
*N *2567:10 *C 44.672 7.128
*N *2567:11 *C 44.672 7.268

*CAP
0 *83:Y 0.001
1 *84:A3 0.001
2 *85:A3 0.001
3 *2567:3 0.00649037
4 *2567:4 0.1357331
5 *2567:5 0.02141058
6 *2567:6 0.03388008
7 *2567:7 0.1317302
8 *2567:8 0.03853963
9 *2567:9 0.03853963
10 *2567:10 0.01059413
11 *2567:11 0.00916145

*RES
0 *83:Y *2567:11 1
1 *2567:5 *84:A3 1
2 *2567:3 *85:A3 1
3 *2567:7 *2567:6 0.2714286
4 *2567:7 *2567:4 3.257143
5 *2567:8 *2567:7 0.5
6 *2567:10 *2567:9 0.5
7 *2567:9 *2567:8 1.580357
8 *2567:11 *2567:10 0.2325
9 *2567:4 *2567:3 0.2473214
10 *2567:6 *2567:5 0.51875

*END

*D_NET *2571 1.556086 //LENGTH 19.066 LUMPCC 0 DR

*CONN
*I *162:Y O *L 0 *C 17.008 29.472
*I *371:CLK I *L 0.694632 *C 18.376 31.904
*I *363:CLK I *L 0.694632 *C 18.224 35.248
*I *362:CLK I *L 0.694632 *C 19.136 38.288
*I *242:CLK I *L 0.695415 *C 20.048 41.632
*I *360:CLK I *L 0.694632 *C 17.464 38.592
*N *2571:6 *C 17.464 38.580
*N *2571:7 *C 17.464 38.440
*N *2571:8 *C 17.477 38.440
*N *2571:9 *C 18.072 38.440
*N *2571:10 *C 20.048 41.632
*N *2571:11 *C 20.048 41.480
*N *2571:12 *C 20.048 41.480
*N *2571:13 *C 20.188 41.480
*N *2571:14 *C 20.200 41.467
*N *2571:15 *C 20.200 38.150
*N *2571:16 *C 20.187 38.136
*N *2571:17 *C 19.136 38.276
*N *2571:18 *C 19.136 38.136
*N *2571:19 *C 19.136 38.136
*N *2571:20 *C 18.072 38.136
*N *2571:21 *C 18.072 38.123
*N *2571:22 *C 18.224 35.236
*N *2571:23 *C 18.224 35.096
*N *2571:24 *C 18.212 35.096
*N *2571:25 *C 18.072 35.096
*N *2571:26 *C 18.072 35.096
*N *2571:27 *C 18.376 31.892
*N *2571:28 *C 18.376 31.752
*N *2571:29 *C 18.363 31.752
*N *2571:30 *C 18.085 31.752
*N *2571:31 *C 18.072 31.752
*N *2571:32 *C 18.072 29.638
*N *2571:33 *C 18.059 29.624
*N *2571:34 *C 17.021 29.624
*N *2571:35 *C 17.008 29.612
*N *2571:36 *C 17.008 29.472

*CAP
0 *162:Y 0.001
1 *371:CLK 0.001
2 *363:CLK 0.001
3 *362:CLK 0.001
4 *242:CLK 0.001
5 *360:CLK 0.001
6 *2571:6 0.008536263
7 *2571:7 0.009968942
8 *2571:8 0.02828916
9 *2571:9 0.04457425
10 *2571:10 0.01187652
11 *2571:11 0.0133092
12 *2571:12 0.0113746
13 *2571:13 0.01137515
14 *2571:14 0.1484254
15 *2571:15 0.1484254
16 *2571:16 0.04556902
17 *2571:17 0.01798065
18 *2571:18 0.01941333
19 *2571:19 0.09087805
20 *2571:20 0.05685077
21 *2571:21 0.116074
22 *2571:22 0.0140051
23 *2571:23 0.01543778
24 *2571:24 0.01002536
25 *2571:25 0.0100259
26 *2571:26 0.2482338
27 *2571:27 0.01371762
28 *2571:28 0.0151503
29 *2571:29 0.0156084
30 *2571:30 0.01560895
31 *2571:31 0.2098087
32 *2571:32 0.07764887
33 *2571:33 0.05193238
34 *2571:34 0.05193184
35 *2571:35 0.009731508
36 *2571:36 0.00829883

*RES
0 *162:Y *2571:36 1
1 *2571:16 *2571:15 0.5
2 *2571:15 *2571:14 5.923214
3 *2571:13 *2571:12 0.2325
4 *2571:14 *2571:13 0.5
5 *2571:11 *2571:10 0.2533334
6 *2571:12 *2571:11 0.5
7 *2571:10 *242:CLK 1
8 *2571:18 *2571:17 0.2325
9 *2571:19 *2571:18 0.5
10 *2571:19 *2571:16 1.875893
11 *2571:17 *362:CLK 1
12 *2571:20 *2571:19 1.9
13 *2571:20 *2571:9 0.5428572
14 *2571:21 *2571:20 0.5
15 *2571:30 *2571:29 0.4946429
16 *2571:31 *2571:30 0.5
17 *2571:31 *2571:26 5.971429
18 *2571:28 *2571:27 0.2325
19 *2571:29 *2571:28 0.5
20 *2571:27 *371:CLK 1
21 *2571:25 *2571:24 0.2325
22 *2571:26 *2571:25 0.5
23 *2571:26 *2571:21 5.404465
24 *2571:23 *2571:22 0.2325
25 *2571:24 *2571:23 0.5
26 *2571:22 *363:CLK 1
27 *2571:7 *2571:6 0.2325
28 *2571:8 *2571:7 0.5
29 *2571:6 *360:CLK 1
30 *2571:33 *2571:32 0.5
31 *2571:32 *2571:31 3.775893
32 *2571:35 *2571:34 0.5
33 *2571:34 *2571:33 1.851786
34 *2571:36 *2571:35 0.2325
35 *2571:9 *2571:8 1.061607

*END

*D_NET *2578 0.2702716 //LENGTH 2.914 LUMPCC 0 DR

*CONN
*I *98:Y O *L 0 *C 23.240 31.448
*I *99:A5 I *L 0.542358 *C 24.456 30.688
*N *2578:2 *C 24.456 30.702
*N *2578:3 *C 24.456 31.739
*N *2578:4 *C 24.443 31.752
*N *2578:5 *C 23.254 31.752
*N *2578:6 *C 23.240 31.739
*N *2578:7 *C 23.240 31.462

*CAP
0 *98:Y 0.001
1 *99:A5 0.001
2 *2578:2 0.05514607
3 *2578:3 0.05657875
4 *2578:4 0.06277101
5 *2578:5 0.06277101
6 *2578:6 0.01621872
7 *2578:7 0.01478605

*RES
0 *98:Y *2578:7 1
1 *2578:2 *99:A5 1
2 *2578:3 *2578:2 1.851786
3 *2578:4 *2578:3 0.5
4 *2578:6 *2578:5 0.5
5 *2578:5 *2578:4 2.123214
6 *2578:7 *2578:6 0.4946429

*END

*D_NET *2580 0.7288185 //LENGTH 6.373 LUMPCC 0 DR

*CONN
*I *96:Y O *L 0 *C 22.287 32.812
*I *99:A1 I *L 0.484201 *C 25.109 30.840
*I *98:A1 I *L 0.494827 *C 22.099 30.840
*N *2580:3 *C 22.313 30.840
*N *2580:4 *C 22.328 30.854
*N *2580:5 *C 22.328 31.144
*N *2580:6 *C 25.064 30.658
*N *2580:7 *C 25.064 30.840
*N *2580:8 *C 25.064 30.828
*N *2580:9 *C 25.050 30.840
*N *2580:10 *C 24.912 30.840
*N *2580:11 *C 24.912 31.144
*N *2580:12 *C 22.494 31.144
*N *2580:13 *C 22.480 31.158
*N *2580:14 *C 22.480 32.803
*N *2580:15 *C 22.468 32.816

*CAP
0 *96:Y 0.01816451
1 *99:A1 0.01224342
2 *98:A1 0.01881526
3 *2580:3 0.01673986
4 *2580:4 0.0273188
5 *2580:5 0.03835119
6 *2580:6 0.02042219
7 *2580:7 0.01016802
8 *2580:8 0.01597457
9 *2580:9 0.009503601
10 *2580:10 0.02580037
11 *2580:11 0.1371479
12 *2580:12 0.1208511
13 *2580:13 0.1249444
14 *2580:14 0.1162842
15 *2580:15 0.01608911

*RES
0 *96:Y *2580:15 0.3008333
1 *2580:13 *2580:12 0.5
2 *2580:13 *2580:5 0.2714286
3 *2580:12 *2580:11 4.31875
4 *2580:8 *2580:7 1
5 *2580:8 *2580:6 0.2825
6 *2580:9 *2580:8 0.5
7 *2580:7 *99:A1 0.09166667
8 *2580:15 *2580:14 1
9 *2580:14 *2580:13 2.9375
10 *2580:3 *98:A1 0.428
11 *2580:4 *2580:3 1
12 *2580:5 *2580:4 0.5187501
13 *2580:11 *2580:10 0.5428572
14 *2580:10 *2580:9 0.2473214

*END

*D_NET *2584 0.2902146 //LENGTH 3.046 LUMPCC 0 DR

*CONN
*I *103:Y O *L 0 *C 23.240 33.883
*I *79:A2 I *L 0.45541 *C 25.520 34.184
*N *2584:2 *C 25.520 34.002
*N *2584:3 *C 25.520 34.172
*N *2584:4 *C 25.507 34.184
*N *2584:5 *C 23.254 34.184
*N *2584:6 *C 23.240 34.171
*N *2584:7 *C 23.240 33.894

*CAP
0 *103:Y 0.001
1 *79:A2 0.001
2 *2584:2 0.01744722
3 *2584:3 0.01127011
4 *2584:4 0.1142929
5 *2584:5 0.1142929
6 *2584:6 0.0161422
7 *2584:7 0.01476924

*RES
0 *103:Y *2584:7 1
1 *2584:3 *79:A2 1
2 *2584:3 *2584:2 0.2825
3 *2584:4 *2584:3 0.5
4 *2584:6 *2584:5 0.5
5 *2584:5 *2584:4 4.023215
6 *2584:7 *2584:6 0.4946429

*END

*D_NET *2587 2.05525 //LENGTH 21.154 LUMPCC 0 DR

*CONN
*I *91:Y O *L 0 *C 16.552 46.341
*I *79:A4 I *L 0.443333 *C 25.216 34.184
*N *2587:2 *C 25.216 34.198
*N *2587:3 *C 25.216 39.339
*N *2587:4 *C 25.203 39.352
*N *2587:5 *C 16.566 39.352
*N *2587:6 *C 16.552 39.366
*N *2587:7 *C 16.552 46.331

*CAP
0 *91:Y 0.001
1 *79:A4 0.001
2 *2587:2 0.289727
3 *2587:3 0.2911597
4 *2587:4 0.3889821
5 *2587:5 0.3889821
6 *2587:6 0.3478861
7 *2587:7 0.3465132

*RES
0 *91:Y *2587:7 1
1 *2587:2 *79:A4 1
2 *2587:3 *2587:2 9.180358
3 *2587:4 *2587:3 0.5
4 *2587:6 *2587:5 0.5
5 *2587:5 *2587:4 15.42321
6 *2587:7 *2587:6 12.4375

*END

*D_NET *2590 2.859602 //LENGTH 24.381 LUMPCC 0 DR

*CONN
*I *168:Y O *L 0 *C 35.248 26.128
*I *57:A1 I *L 0.496377 *C 34.336 22.480
*I *115:A1 I *L 0.514394 *C 31.936 20.960
*I *55:A1 I *L 0.514394 *C 31.144 15.792
*I *53:A1 I *L 0.514394 *C 31.752 10.928
*N *2590:5 *C 31.752 10.942
*N *2590:6 *C 31.144 15.779
*N *2590:7 *C 31.144 12.309
*N *2590:8 *C 31.158 12.296
*N *2590:9 *C 31.739 12.296
*N *2590:10 *C 31.752 12.296
*N *2590:11 *C 31.752 13.512
*N *2590:12 *C 31.904 13.512
*N *2590:13 *C 31.904 20.187
*N *2590:14 *C 31.918 20.200
*N *2590:15 *C 32.346 20.200
*N *2590:16 *C 32.360 20.213
*N *2590:17 *C 32.345 20.960
*N *2590:18 *C 32.360 20.960
*N *2590:19 *C 32.360 21.402
*N *2590:20 *C 32.373 21.416
*N *2590:21 *C 34.323 21.416
*N *2590:22 *C 34.336 21.430
*N *2590:23 *C 34.336 22.480
*N *2590:24 *C 34.336 22.922
*N *2590:25 *C 34.349 22.936
*N *2590:26 *C 35.235 22.936
*N *2590:27 *C 35.248 22.950
*N *2590:28 *C 35.248 26.114

*CAP
0 *168:Y 0.001
1 *57:A1 0.001
2 *115:A1 0.0324933
3 *55:A1 0.001
4 *53:A1 0.001
5 *2590:5 0.09837247
6 *2590:6 0.2097948
7 *2590:7 0.2112275
8 *2590:8 0.03275475
9 *2590:9 0.03275475
10 *2590:10 0.1812343
11 *2590:11 0.08982357
12 *2590:12 0.4731057
13 *2590:13 0.462339
14 *2590:14 0.02515994
15 *2590:15 0.02515994
16 *2590:16 0.04465672
17 *2590:17 0.0304179
18 *2590:18 0.07871845
19 *2590:19 0.03139269
20 *2590:20 0.09446929
21 *2590:21 0.09446929
22 *2590:22 0.06746919
23 *2590:23 0.09541096
24 *2590:24 0.02700223
25 *2590:25 0.0425477
26 *2590:26 0.0425477
27 *2590:27 0.1668566
28 *2590:28 0.1654239

*RES
0 *168:Y *2590:28 1
1 *2590:24 *2590:23 0.7901787
2 *2590:25 *2590:24 0.5
3 *2590:27 *2590:26 0.5
4 *2590:26 *2590:25 1.580357
5 *2590:28 *2590:27 5.651786
6 *2590:23 *57:A1 1
7 *2590:23 *2590:22 1.875893
8 *2590:22 *2590:21 0.5
9 *2590:21 *2590:20 3.480357
10 *2590:19 *2590:18 0.7901786
11 *2590:20 *2590:19 0.5
12 *2590:17 *115:A1 0.8180001
13 *2590:18 *2590:17 1
14 *2590:18 *2590:16 1.333036
15 *2590:16 *2590:15 0.5
16 *2590:15 *2590:14 0.7660715
17 *2590:13 *2590:12 11.91875
18 *2590:14 *2590:13 0.5
19 *2590:5 *53:A1 1
20 *2590:10 *2590:9 0.5
21 *2590:10 *2590:5 2.41875
22 *2590:9 *2590:8 1.0375
23 *2590:7 *2590:6 6.194643
24 *2590:8 *2590:7 0.5
25 *2590:6 *55:A1 1
26 *2590:11 *2590:10 2.171429
27 *2590:12 *2590:11 0.2714286

*END

*D_NET *2591 0.984518 //LENGTH 8.269 LUMPCC 0 DR

*CONN
*I *106:Y O *L 0 *C 22.632 33.576
*I *107:A5 I *L 0.542358 *C 21.416 27.344
*N *2591:2 *C 22.784 33.394
*N *2591:3 *C 21.416 27.358
*N *2591:4 *C 21.416 33.562
*N *2591:5 *C 21.430 33.576
*N *2591:6 *C 22.771 33.576
*N *2591:7 *C 22.784 33.564
*N *2591:8 *C 22.769 33.576

*CAP
0 *106:Y 0.01587281
1 *107:A5 0.001
2 *2591:2 0.01797361
3 *2591:3 0.3929434
4 *2591:4 0.394376
5 *2591:5 0.06751436
6 *2591:6 0.06751436
7 *2591:7 0.01352599
8 *2591:8 0.01379741

*RES
0 *106:Y *2591:8 0.2740001
1 *2591:3 *107:A5 1
2 *2591:4 *2591:3 11.08036
3 *2591:5 *2591:4 0.5
4 *2591:7 *2591:6 0.5
5 *2591:7 *2591:2 0.2825
6 *2591:6 *2591:5 2.394643
7 *2591:8 *2591:7 1

*END

*D_NET *2592 0.6516015 //LENGTH 6.604 LUMPCC 0 DR

*CONN
*I *51:Y O *L 0 *C 23.684 28.864
*I *107:A4 I *L 0.514778 *C 21.872 27.648
*I *52:A3 I *L 0.474994 *C 23.544 25.824
*N *2592:3 *C 23.544 25.838
*N *2592:4 *C 21.872 27.635
*N *2592:5 *C 21.872 26.294
*N *2592:6 *C 21.886 26.280
*N *2592:7 *C 23.530 26.280
*N *2592:8 *C 23.544 26.280
*N *2592:9 *C 23.544 28.851
*N *2592:10 *C 23.556 28.864

*CAP
0 *51:Y 0.01357464
1 *107:A4 0.001
2 *52:A3 0.001
3 *2592:3 0.02061687
4 *2592:4 0.09557966
5 *2592:5 0.09701234
6 *2592:6 0.0730617
7 *2592:7 0.0730617
8 *2592:8 0.1446601
9 *2592:9 0.1205352
10 *2592:10 0.01149924

*RES
0 *51:Y *2592:10 0.2116667
1 *2592:10 *2592:9 1
2 *2592:9 *2592:8 4.590178
3 *2592:3 *52:A3 1
4 *2592:8 *2592:7 0.5
5 *2592:8 *2592:3 0.7901786
6 *2592:7 *2592:6 2.9375
7 *2592:5 *2592:4 2.394643
8 *2592:6 *2592:5 0.5
9 *2592:4 *107:A4 1

*END

*D_NET *2593 0.6265185 //LENGTH 5.487 LUMPCC 0 DR

*CONN
*I *50:Y O *L 0 *C 21.720 26.128
*I *52:A2 I *L 0.54421 *C 23.240 25.216
*I *107:A2 I *L 0.515513 *C 22.024 28.256
*N *2593:3 *C 22.024 28.242
*N *2593:4 *C 23.240 25.230
*N *2593:5 *C 23.240 25.659
*N *2593:6 *C 23.227 25.672
*N *2593:7 *C 22.038 25.672
*N *2593:8 *C 22.024 25.686
*N *2593:9 *C 21.720 25.672
*N *2593:10 *C 21.720 26.114

*CAP
0 *50:Y 0.001
1 *52:A2 0.001
2 *107:A2 0.001
3 *2593:3 0.1753305
4 *2593:4 0.02694222
5 *2593:5 0.0283749
6 *2593:6 0.05547098
7 *2593:7 0.05547098
8 *2593:8 0.191937
9 *2593:9 0.0544854
10 *2593:10 0.03550664

*RES
0 *50:Y *2593:10 1
1 *2593:3 *107:A2 1
2 *2593:8 *2593:7 0.5
3 *2593:8 *2593:3 4.566072
4 *2593:7 *2593:6 2.123214
5 *2593:5 *2593:4 0.7660715
6 *2593:6 *2593:5 0.5
7 *2593:4 *52:A2 1
8 *2593:10 *2593:9 0.7901786
9 *2593:9 *2593:8 0.5428572

*END

*D_NET *2595 0.9187 //LENGTH 8.417 LUMPCC 0 DR

*CONN
*I *48:Y O *L 0 *C 20.464 26.154
*I *108:A1 I *L 0.601783 *C 19.288 25.824
*I *107:A3 I *L 0.539281 *C 21.568 27.800
*I *107:A1 I *L 0.484201 *C 22.176 27.496
*I *52:A1 I *L 0.502229 *C 23.088 25.976
*N *2595:5 *C 23.088 25.794
*N *2595:6 *C 23.088 25.963
*N *2595:7 *C 23.075 25.976
*N *2595:8 *C 22.176 27.483
*N *2595:9 *C 22.176 25.989
*N *2595:10 *C 22.176 25.976
*N *2595:11 *C 21.568 27.787
*N *2595:12 *C 21.568 25.989
*N *2595:13 *C 21.568 25.976
*N *2595:14 *C 19.288 25.824
*N *2595:15 *C 19.288 25.963
*N *2595:16 *C 19.302 25.976
*N *2595:17 *C 20.352 25.976
*N *2595:18 *C 20.352 25.976
*N *2595:19 *C 20.352 26.116
*N *2595:20 *C 20.364 26.128

*CAP
0 *48:Y 0.0134968
1 *108:A1 0.001
2 *107:A3 0.001
3 *107:A1 0.001
4 *52:A1 0.001
5 *2595:5 0.01401915
6 *2595:6 0.007842037
7 *2595:7 0.04130396
8 *2595:8 0.1247705
9 *2595:9 0.1262032
10 *2595:10 0.06788082
11 *2595:11 0.1131945
12 *2595:12 0.1146271
13 *2595:13 0.07789177
14 *2595:14 0.01075101
15 *2595:15 0.01218369
16 *2595:16 0.04787381
17 *2595:17 0.101561
18 *2595:18 0.01469128
19 *2595:19 0.0149881
20 *2595:20 0.0114214

*RES
0 *48:Y *2595:20 0.1658334
1 *2595:6 *52:A1 1
2 *2595:6 *2595:5 0.2825
3 *2595:7 *2595:6 0.5
4 *2595:9 *2595:8 2.666072
5 *2595:10 *2595:9 0.5
6 *2595:10 *2595:7 1.604464
7 *2595:8 *107:A1 1
8 *2595:12 *2595:11 3.208929
9 *2595:13 *2595:12 0.5
10 *2595:13 *2595:10 1.085714
11 *2595:11 *107:A3 1
12 *2595:18 *2595:17 0.5
13 *2595:17 *2595:16 1.875893
14 *2595:17 *2595:13 2.171429
15 *2595:20 *2595:19 1
16 *2595:19 *2595:18 0.2325
17 *2595:15 *2595:14 0.2325
18 *2595:16 *2595:15 0.5
19 *2595:14 *108:A1 1

*END

*D_NET *2598 0.4332212 //LENGTH 3.946 LUMPCC 0 DR

*CONN
*I *62:Y O *L 0 *C 14.120 44.064
*I *110:A2 I *L 0.515513 *C 13.512 44.976
*I *64:A2 I *L 0.54421 *C 11.688 44.976
*N *2598:3 *C 11.688 44.964
*N *2598:4 *C 11.688 44.824
*N *2598:5 *C 11.702 44.824
*N *2598:6 *C 13.512 44.964
*N *2598:7 *C 13.512 44.824
*N *2598:8 *C 13.512 44.824
*N *2598:9 *C 14.107 44.824
*N *2598:10 *C 14.120 44.811
*N *2598:11 *C 14.120 44.078

*CAP
0 *62:Y 0.001
1 *110:A2 0.001
2 *64:A2 0.001
3 *2598:3 0.009355638
4 *2598:4 0.01078832
5 *2598:5 0.1184346
6 *2598:6 0.00780693
7 *2598:7 0.009239607
8 *2598:8 0.1591779
9 *2598:9 0.03837106
10 *2598:10 0.03923996
11 *2598:11 0.03780727

*RES
0 *62:Y *2598:11 1
1 *2598:10 *2598:9 0.5
2 *2598:9 *2598:8 1.061607
3 *2598:11 *2598:10 1.308929
4 *2598:7 *2598:6 0.2325
5 *2598:8 *2598:7 0.5
6 *2598:8 *2598:5 3.233036
7 *2598:6 *110:A2 1
8 *2598:4 *2598:3 0.2325
9 *2598:5 *2598:4 0.5
10 *2598:3 *64:A2 1

*END

*D_NET *2600 0.7317793 //LENGTH 7.491 LUMPCC 0 DR

*CONN
*I *60:Y O *L 0 *C 11.232 46.192
*I *64:A1 I *L 0.502229 *C 11.840 44.216
*I *110:A3 I *L 0.539281 *C 13.056 44.520
*I *110:A1 I *L 0.484201 *C 13.664 44.216
*I *111:A1 I *L 0.601783 *C 13.208 42.544
*N *2600:5 *C 13.208 42.558
*N *2600:6 *C 13.664 44.203
*N *2600:7 *C 13.664 43.925
*N *2600:8 *C 13.651 43.912
*N *2600:9 *C 13.222 43.912
*N *2600:10 *C 13.208 43.912
*N *2600:11 *C 13.057 44.520
*N *2600:12 *C 13.208 44.507
*N *2600:13 *C 13.195 44.520
*N *2600:14 *C 11.840 44.230
*N *2600:15 *C 11.840 44.507
*N *2600:16 *C 11.840 44.520
*N *2600:17 *C 11.245 44.520
*N *2600:18 *C 11.232 44.534
*N *2600:19 *C 11.232 46.178

*CAP
0 *60:Y 0.001
1 *64:A1 0.001
2 *110:A3 0.001
3 *110:A1 0.001
4 *111:A1 0.001
5 *2600:5 0.07349845
6 *2600:6 0.01728312
7 *2600:7 0.01871579
8 *2600:8 0.0254779
9 *2600:9 0.0254779
10 *2600:10 0.1089264
11 *2600:11 0.005662516
12 *2600:12 0.04109041
13 *2600:13 0.06696771
14 *2600:14 0.02638171
15 *2600:15 0.02781439
16 *2600:16 0.09888198
17 *2600:17 0.02954205
18 *2600:18 0.08124582
19 *2600:19 0.07981315

*RES
0 *60:Y *2600:19 1
1 *2600:10 *2600:9 0.5
2 *2600:10 *2600:5 2.41875
3 *2600:9 *2600:8 0.7660714
4 *2600:7 *2600:6 0.4946429
5 *2600:8 *2600:7 0.5
6 *2600:6 *110:A1 1
7 *2600:5 *111:A1 1
8 *2600:11 *110:A3 1
9 *2600:12 *2600:11 0.2696429
10 *2600:12 *2600:10 1.061607
11 *2600:13 *2600:12 0.5
12 *2600:15 *2600:14 0.4946429
13 *2600:16 *2600:15 0.5
14 *2600:16 *2600:13 2.41875
15 *2600:14 *64:A1 1
16 *2600:18 *2600:17 0.5
17 *2600:17 *2600:16 1.061607
18 *2600:19 *2600:18 2.9375

*END

*D_NET *2604 0.4156061 //LENGTH 3.942 LUMPCC 0 DR

*CONN
*I *67:Y O *L 0 *C 39.200 7.888
*I *114:A2 I *L 0.537813 *C 38.440 5.912
*I *68:A I *L 0.582888 *C 39.656 5.912
*N *2604:3 *C 39.656 5.926
*N *2604:4 *C 39.656 6.216
*N *2604:5 *C 38.440 5.926
*N *2604:6 *C 38.440 6.203
*N *2604:7 *C 38.454 6.216
*N *2604:8 *C 39.187 6.216
*N *2604:9 *C 39.200 6.216
*N *2604:10 *C 39.200 7.887

*CAP
0 *67:Y 0.001
1 *114:A2 0.001
2 *68:A 0.001
3 *2604:3 0.02054732
4 *2604:4 0.0461449
5 *2604:5 0.01710177
6 *2604:6 0.01853445
7 *2604:7 0.04371029
8 *2604:8 0.04371029
9 *2604:9 0.1230412
10 *2604:10 0.09981586

*RES
0 *67:Y *2604:10 1
1 *2604:3 *68:A 1
2 *2604:10 *2604:9 2.983929
3 *2604:9 *2604:8 0.5
4 *2604:9 *2604:4 0.8142858
5 *2604:8 *2604:7 1.308929
6 *2604:6 *2604:5 0.4946429
7 *2604:7 *2604:6 0.5
8 *2604:5 *114:A2 1
9 *2604:4 *2604:3 0.5187501

*END

*D_NET *2607 6.231761 //LENGTH 66.471 LUMPCC 0 DR

*CONN
*I *45:Y O *L 0 *C 30.384 27.192
*I *115:A3 I *L 0.507548 *C 31.348 20.200
*I *55:A5 I *L 0.583269 *C 30.384 15.944
*I *65:A3 I *L 0.507548 *C 36.616 6.824
*I *67:A5 I *L 0.583269 *C 38.592 7.432
*I *69:A5 I *L 0.566579 *C 40.872 7.432
*I *112:A3 I *L 0.507548 *C 42.696 9.864
*I *53:A3 I *L 0.507548 *C 31.196 10.168
*I *57:A5 I *L 0.566579 *C 33.576 22.632
*I *51:A5 I *L 0.566579 *C 24.603 29.326
*I *47:A3 I *L 0.507548 *C 22.076 29.928
*I *500:A I *L 0.561607 *C 22.784 36.008
*I *106:A5 I *L 0.583269 *C 22.024 34.184
*I *49:A5 I *L 0.583269 *C 19.899 29.326
*N *2607:14 *C 30.384 27.010
*N *2607:15 *C 20.200 29.320
*N *2607:16 *C 20.200 29.321
*N *2607:17 *C 20.200 29.611
*N *2607:18 *C 20.213 29.624
*N *2607:19 *C 22.024 34.183
*N *2607:20 *C 22.784 35.995
*N *2607:21 *C 22.784 33.894
*N *2607:22 *C 22.771 33.880
*N *2607:23 *C 22.038 33.880
*N *2607:24 *C 22.024 33.880
*N *2607:25 *C 22.024 29.928
*N *2607:26 *C 22.024 29.928
*N *2607:27 *C 22.024 29.638
*N *2607:28 *C 22.024 29.624
*N *2607:29 *C 24.319 29.320
*N *2607:30 *C 24.304 29.334
*N *2607:31 *C 24.304 29.611
*N *2607:32 *C 24.317 29.624
*N *2607:33 *C 24.444 29.624
*N *2607:34 *C 24.456 29.638
*N *2607:35 *C 24.456 29.915
*N *2607:36 *C 24.470 29.928
*N *2607:37 *C 30.523 29.928
*N *2607:38 *C 30.536 29.915
*N *2607:39 *C 30.536 28.422
*N *2607:40 *C 30.550 28.408
*N *2607:41 *C 30.979 28.408
*N *2607:42 *C 30.992 28.395
*N *2607:43 *C 33.576 22.450
*N *2607:44 *C 33.576 22.620
*N *2607:45 *C 33.562 22.632
*N *2607:46 *C 31.144 9.986
*N *2607:47 *C 31.144 10.168
*N *2607:48 *C 31.144 10.155
*N *2607:49 *C 31.131 10.168
*N *2607:50 *C 30.854 10.168
*N *2607:51 *C 30.840 10.181
*N *2607:52 *C 42.696 9.851
*N *2607:53 *C 42.696 9.270
*N *2607:54 *C 42.683 9.256
*N *2607:55 *C 40.886 9.256
*N *2607:56 *C 40.872 9.242
*N *2607:57 *C 40.872 7.446
*N *2607:58 *C 40.858 7.432
*N *2607:59 *C 38.592 7.300
*N *2607:60 *C 38.592 7.420
*N *2607:61 *C 38.592 7.432
*N *2607:62 *C 36.616 6.838
*N *2607:63 *C 36.616 7.419
*N *2607:64 *C 36.616 7.432
*N *2607:65 *C 35.110 7.432
*N *2607:66 *C 35.096 7.446
*N *2607:67 *C 35.096 10.459
*N *2607:68 *C 35.083 10.472
*N *2607:69 *C 30.854 10.472
*N *2607:70 *C 30.840 10.472
*N *2607:71 *C 30.384 15.812
*N *2607:72 *C 30.384 15.932
*N *2607:73 *C 30.398 15.944
*N *2607:74 *C 30.839 15.944
*N *2607:75 *C 30.840 15.944
*N *2607:76 *C 30.840 20.504
*N *2607:77 *C 31.296 20.200
*N *2607:78 *C 31.296 20.213
*N *2607:79 *C 31.296 20.491
*N *2607:80 *C 31.284 20.504
*N *2607:81 *C 31.144 20.504
*N *2607:82 *C 31.144 20.518
*N *2607:83 *C 31.144 22.619
*N *2607:84 *C 31.158 22.632
*N *2607:85 *C 31.143 22.632
*N *2607:86 *C 30.992 22.632
*N *2607:87 *C 30.992 27.192
*N *2607:88 *C 30.979 27.192
*N *2607:89 *C 30.398 27.192
*N *2607:90 *C 30.384 27.180

*CAP
0 *45:Y 0.001
1 *115:A3 0.01016385
2 *55:A5 0.001
3 *65:A3 0.001
4 *67:A5 0.001
5 *69:A5 0.001
6 *112:A3 0.001
7 *53:A3 0.01011895
8 *57:A5 0.001
9 *51:A5 0.01982331
10 *47:A3 0.01019819
11 *500:A 0.001
12 *106:A5 0.001
13 *49:A5 0.01843375
14 *2607:14 0.01548778
15 *2607:15 0.02665238
16 *2607:16 0.01938222
17 *2607:17 0.0190854
18 *2607:18 0.08530616
19 *2607:19 0.01444993
20 *2607:20 0.1321676
21 *2607:21 0.1336003
22 *2607:22 0.03507767
23 *2607:23 0.03507767
24 *2607:24 0.2631382
25 *2607:25 0.008122788
26 *2607:26 0.2688133
27 *2607:27 0.02126087
28 *2607:28 0.1983929
29 *2607:29 0.01774791
30 *2607:30 0.02827592
31 *2607:31 0.0279791
32 *2607:32 0.1234753
33 *2607:33 0.01038911
34 *2607:34 0.01793255
35 *2607:35 0.01793308
36 *2607:36 0.2213755
37 *2607:37 0.2213755
38 *2607:38 0.06669789
39 *2607:39 0.06669737
40 *2607:40 0.02461795
41 *2607:41 0.02461741
42 *2607:42 0.05533282
43 *2607:43 0.01769511
44 *2607:44 0.01151799
45 *2607:45 0.1229312
46 *2607:46 0.01836395
47 *2607:47 0.008043553
48 *2607:48 0.01391633
49 *2607:49 0.01868309
50 *2607:50 0.01868363
51 *2607:51 0.0143469
52 *2607:52 0.03181919
53 *2607:53 0.03325187
54 *2607:54 0.1026891
55 *2607:55 0.1026891
56 *2607:56 0.09104134
57 *2607:57 0.08723645
58 *2607:58 0.1111836
59 *2607:59 0.01598624
60 *2607:60 0.007832274
61 *2607:61 0.2035597
62 *2607:62 0.03910782
63 *2607:63 0.0405405
64 *2607:64 0.1603006
65 *2607:65 0.06594811
66 *2607:66 0.1306405
67 *2607:67 0.130641
68 *2607:68 0.142876
69 *2607:69 0.142876
70 *2607:70 0.2483492
71 *2607:71 0.01544202
72 *2607:72 0.007288061
73 *2607:73 0.02297128
74 *2607:74 0.02494868
75 *2607:75 0.4245166
76 *2607:76 0.2060116
77 *2607:77 0.008088455
78 *2607:78 0.03106163
79 *2607:79 0.03076481
80 *2607:80 0.01014595
81 *2607:81 0.0101465
82 *2607:82 0.1216081
83 *2607:83 0.1084831
84 *2607:84 0.1205596
85 *2607:85 0.006528363
86 *2607:86 0.2701518
87 *2607:87 0.3165841
88 *2607:88 0.03809951
89 *2607:89 0.03809951
90 *2607:90 0.009310661

*RES
0 *45:Y *2607:90 1
1 *2607:56 *2607:55 0.5
2 *2607:55 *2607:54 3.208929
3 *2607:53 *2607:52 1.0375
4 *2607:54 *2607:53 0.5
5 *2607:52 *112:A3 1
6 *2607:57 *69:A5 1
7 *2607:57 *2607:56 3.208929
8 *2607:58 *2607:57 0.5
9 *2607:60 *67:A5 1
10 *2607:60 *2607:59 0.1991667
11 *2607:61 *2607:60 0.5
12 *2607:61 *2607:58 4.047322
13 *2607:63 *2607:62 1.0375
14 *2607:64 *2607:63 0.5
15 *2607:64 *2607:61 3.528572
16 *2607:62 *65:A3 1
17 *2607:44 *57:A5 1
18 *2607:44 *2607:43 0.2825
19 *2607:45 *2607:44 0.5
20 *2607:84 *2607:83 0.5
21 *2607:84 *2607:45 4.294643
22 *2607:83 *2607:82 3.751786
23 *2607:81 *2607:80 0.2325
24 *2607:82 *2607:81 0.5
25 *2607:82 *2607:76 0.5428572
26 *2607:79 *2607:78 0.4946429
27 *2607:80 *2607:79 0.5
28 *2607:77 *115:A3 0.09166668
29 *2607:78 *2607:77 1
30 *2607:85 *2607:84 0.5
31 *2607:50 *2607:49 0.4946429
32 *2607:51 *2607:50 0.5
33 *2607:48 *2607:47 1
34 *2607:48 *2607:46 0.2825
35 *2607:49 *2607:48 0.5
36 *2607:47 *53:A3 0.09166668
37 *2607:65 *2607:64 2.690179
38 *2607:66 *2607:65 0.5
39 *2607:67 *2607:66 5.380358
40 *2607:68 *2607:67 0.5
41 *2607:70 *2607:69 0.5
42 *2607:70 *2607:51 0.5187501
43 *2607:69 *2607:68 7.551786
44 *2607:87 *2607:86 8.142858
45 *2607:87 *2607:42 2.147322
46 *2607:88 *2607:87 0.5
47 *2607:90 *2607:89 0.5
48 *2607:90 *2607:14 0.2825
49 *2607:89 *2607:88 1.0375
50 *2607:74 *2607:73 0.7883929
51 *2607:75 *2607:74 0.5
52 *2607:75 *2607:70 9.771429
53 *2607:72 *55:A5 1
54 *2607:72 *2607:71 0.1991667
55 *2607:73 *2607:72 0.5
56 *2607:42 *2607:41 0.5
57 *2607:41 *2607:40 0.7660714
58 *2607:40 *2607:39 0.5
59 *2607:39 *2607:38 2.666071
60 *2607:38 *2607:37 0.5
61 *2607:37 *2607:36 10.80893
62 *2607:35 *2607:34 0.4946429
63 *2607:36 *2607:35 0.5
64 *2607:33 *2607:32 0.2116667
65 *2607:34 *2607:33 0.5
66 *2607:31 *2607:30 0.4946429
67 *2607:32 *2607:31 0.5
68 *2607:32 *2607:28 4.09375
69 *2607:29 *51:A5 0.394
70 *2607:30 *2607:29 1
71 *2607:19 *106:A5 1
72 *2607:24 *2607:23 0.5
73 *2607:24 *2607:19 0.5410715
74 *2607:23 *2607:22 1.308929
75 *2607:21 *2607:20 3.751786
76 *2607:22 *2607:21 0.5
77 *2607:20 *500:A 1
78 *2607:25 *47:A3 0.09166668
79 *2607:26 *2607:25 1
80 *2607:26 *2607:24 7.057143
81 *2607:27 *2607:26 0.5187501
82 *2607:28 *2607:27 0.5
83 *2607:28 *2607:18 3.233036
84 *2607:17 *2607:16 0.5169644
85 *2607:18 *2607:17 0.5
86 *2607:15 *49:A5 0.424
87 *2607:16 *2607:15 1
88 *2607:86 *2607:85 0.2696429
89 *2607:76 *2607:75 8.142858

*END

*D_NET *2614 3.343291 //LENGTH 29.480 LUMPCC 0 DR

*CONN
*I *395:Q O *L 0 *C 17.160 22.328
*I *384:A2 I *L 0.501039 *C 19.136 22.328
*I *383:A4 I *L 0.569168 *C 19.896 24.000
*I *349:A2 I *L 0.501039 *C 18.984 41.176
*I *61:A2 I *L 0.52073 *C 18.984 42.848
*I *325:A2 I *L 0.482724 *C 22.784 42.696
*N *2614:6 *C 17.160 22.146
*N *2614:7 *C 22.784 42.710
*N *2614:8 *C 22.784 42.986
*N *2614:9 *C 22.771 43.000
*N *2614:10 *C 18.998 43.000
*N *2614:11 *C 18.984 42.988
*N *2614:12 *C 18.984 42.822
*N *2614:13 *C 18.984 41.176
*N *2614:14 *C 18.984 24.608
*N *2614:15 *C 19.136 24.608
*N *2614:16 *C 19.896 23.986
*N *2614:17 *C 19.896 23.254
*N *2614:18 *C 19.883 23.240
*N *2614:19 *C 19.149 23.240
*N *2614:20 *C 19.136 23.240
*N *2614:21 *C 19.136 22.341
*N *2614:22 *C 19.123 22.328
*N *2614:23 *C 17.174 22.328
*N *2614:24 *C 17.160 22.316

*CAP
0 *395:Q 0.001
1 *384:A2 0.001
2 *383:A4 0.001
3 *349:A2 0.001
4 *61:A2 0.001
5 *325:A2 0.001
6 *2614:6 0.01428468
7 *2614:7 0.0202236
8 *2614:8 0.02165628
9 *2614:9 0.1843817
10 *2614:10 0.1843817
11 *2614:11 0.009574796
12 *2614:12 0.1187019
13 *2614:13 1.095235
14 *2614:14 0.9979253
15 *2614:15 0.1097792
16 *2614:16 0.04374409
17 *2614:17 0.04517677
18 *2614:18 0.03728798
19 *2614:19 0.03728798
20 *2614:20 0.1685345
21 *2614:21 0.0643953
22 *2614:22 0.08830612
23 *2614:23 0.08830612
24 *2614:24 0.008107563

*RES
0 *395:Q *2614:24 1
1 *2614:20 *2614:19 0.5
2 *2614:20 *2614:15 2.442857
3 *2614:19 *2614:18 1.308929
4 *2614:17 *2614:16 1.308929
5 *2614:18 *2614:17 0.5
6 *2614:16 *383:A4 1
7 *2614:21 *384:A2 1
8 *2614:21 *2614:20 1.604464
9 *2614:12 *61:A2 1
10 *2614:12 *2614:11 0.2758334
11 *2614:11 *2614:10 0.5
12 *2614:10 *2614:9 6.737501
13 *2614:8 *2614:7 0.4946429
14 *2614:9 *2614:8 0.5
15 *2614:7 *325:A2 1
16 *2614:13 *349:A2 1
17 *2614:13 *2614:12 2.939286
18 *2614:22 *2614:21 0.5
19 *2614:24 *2614:23 0.5
20 *2614:24 *2614:6 0.2825
21 *2614:23 *2614:22 3.480357
22 *2614:14 *2614:13 29.58572
23 *2614:15 *2614:14 0.2714286

*END

*D_NET *2617 2.064423 //LENGTH 19.314 LUMPCC 0 DR

*CONN
*I *406:Q O *L 0 *C 22.632 18.984
*I *378:A4 I *L 0.569168 *C 22.024 22.784
*I *379:A2 I *L 0.501039 *C 20.656 22.328
*I *352:A2 I *L 0.501039 *C 20.504 31.144
*I *47:A2 I *L 0.52073 *C 22.480 29.472
*I *285:A2 I *L 0.466516 *C 22.784 27.496
*N *2617:6 *C 22.784 27.495
*N *2617:7 *C 22.784 27.192
*N *2617:8 *C 22.480 29.459
*N *2617:9 *C 20.504 31.131
*N *2617:10 *C 20.504 30.232
*N *2617:11 *C 20.656 30.232
*N *2617:12 *C 20.656 28.422
*N *2617:13 *C 20.669 28.408
*N *2617:14 *C 22.466 28.408
*N *2617:15 *C 22.480 28.408
*N *2617:16 *C 22.480 27.192
*N *2617:17 *C 22.632 27.192
*N *2617:18 *C 20.656 22.146
*N *2617:19 *C 20.656 22.316
*N *2617:20 *C 20.669 22.328
*N *2617:21 *C 22.024 22.771
*N *2617:22 *C 22.024 22.341
*N *2617:23 *C 22.024 22.328
*N *2617:24 *C 22.619 22.328
*N *2617:25 *C 22.632 22.328
*N *2617:26 *C 22.632 18.998

*CAP
0 *406:Q 0.001
1 *378:A4 0.001
2 *379:A2 0.001
3 *352:A2 0.001
4 *47:A2 0.001
5 *285:A2 0.001
6 *2617:6 0.01939062
7 *2617:7 0.03053911
8 *2617:8 0.07510211
9 *2617:9 0.05765534
10 *2617:10 0.07131796
11 *2617:11 0.1290937
12 *2617:12 0.1168638
13 *2617:13 0.08467638
14 *2617:14 0.08467638
15 *2617:15 0.1709742
16 *2617:16 0.101956
17 *2617:17 0.2521746
18 *2617:18 0.0186556
19 *2617:19 0.01247848
20 *2617:20 0.05757096
21 *2617:21 0.02689164
22 *2617:22 0.02832432
23 *2617:23 0.08632459
24 *2617:24 0.02638142
25 *2617:25 0.4229751
26 *2617:26 0.1844009

*RES
0 *406:Q *2617:26 1
1 *2617:6 *285:A2 1
2 *2617:26 *2617:25 5.947322
3 *2617:8 *47:A2 1
4 *2617:25 *2617:24 0.5
5 *2617:25 *2617:17 8.685715
6 *2617:24 *2617:23 1.061607
7 *2617:22 *2617:21 0.7660715
8 *2617:23 *2617:22 0.5
9 *2617:23 *2617:20 2.41875
10 *2617:21 *378:A4 1
11 *2617:19 *379:A2 1
12 *2617:19 *2617:18 0.2825
13 *2617:20 *2617:19 0.5
14 *2617:15 *2617:14 0.5
15 *2617:15 *2617:8 1.875893
16 *2617:14 *2617:13 3.208929
17 *2617:12 *2617:11 3.233036
18 *2617:13 *2617:12 0.5
19 *2617:9 *352:A2 1
20 *2617:10 *2617:9 1.604464
21 *2617:11 *2617:10 0.2714286
22 *2617:16 *2617:15 2.171429
23 *2617:17 *2617:16 0.2714286
24 *2617:17 *2617:7 0.2714286
25 *2617:7 *2617:6 0.5410714

*END

*D_NET *2621 2.886857 //LENGTH 30.130 LUMPCC 0 DR

*CONN
*I *398:Q O *L 0 *C 28.104 12.296
*I *356:A2 I *L 0.501039 *C 28.104 11.080
*I *381:A4 I *L 0.569168 *C 22.936 12.752
*I *53:A2 I *L 0.52073 *C 31.600 10.624
*I *289:A1 I *L 0.549073 *C 39.656 21.112
*N *2621:5 *C 39.656 21.111
*N *2621:6 *C 39.656 19.896
*N *2621:7 *C 39.808 19.896
*N *2621:8 *C 39.808 12.918
*N *2621:9 *C 39.794 12.904
*N *2621:10 *C 31.600 10.638
*N *2621:11 *C 31.600 12.891
*N *2621:12 *C 31.600 12.904
*N *2621:13 *C 22.936 12.752
*N *2621:14 *C 22.936 12.892
*N *2621:15 *C 22.950 12.904
*N *2621:16 *C 28.104 12.904
*N *2621:17 *C 28.104 12.891
*N *2621:18 *C 28.104 11.094
*N *2621:19 *C 28.104 12.296

*CAP
0 *398:Q 0.001
1 *356:A2 0.001
2 *381:A4 0.001
3 *53:A2 0.001
4 *289:A1 0.001
5 *2621:5 0.08712836
6 *2621:6 0.09896144
7 *2621:7 0.3934579
8 *2621:8 0.3830575
9 *2621:9 0.3389456
10 *2621:10 0.1700212
11 *2621:11 0.1714539
12 *2621:12 0.4827352
13 *2621:13 0.01400135
14 *2621:14 0.01543403
15 *2621:15 0.2105661
16 *2621:16 0.3543557
17 *2621:17 0.02567212
18 *2621:18 0.05401088
19 *2621:19 0.08205521

*RES
0 *398:Q *2621:19 1
1 *2621:8 *2621:7 12.46161
2 *2621:9 *2621:8 0.5
3 *2621:5 *289:A1 1
4 *2621:11 *2621:10 4.023215
5 *2621:12 *2621:11 0.5
6 *2621:12 *2621:9 14.63304
7 *2621:10 *53:A2 1
8 *2621:17 *2621:16 0.5
9 *2621:16 *2621:15 9.204465
10 *2621:16 *2621:12 6.242858
11 *2621:19 *2621:18 2.147322
12 *2621:19 *2621:17 1.061607
13 *2621:18 *356:A2 1
14 *2621:14 *2621:13 0.2325
15 *2621:15 *2621:14 0.5
16 *2621:13 *381:A4 1
17 *2621:6 *2621:5 2.169643
18 *2621:7 *2621:6 0.2714286

*END

*D_NET *2624 3.927447 //LENGTH 47.405 LUMPCC 0 DR

*CONN
*I *401:Q O *L 0 *C 11.840 11.080
*I *393:A4 I *L 0.569168 *C 17.312 10.624
*I *359:A2 I *L 0.501039 *C 31.121 17.768
*I *252:A I *L 0.582888 *C 45.280 20.808
*I *115:A2 I *L 0.52073 *C 31.752 20.656
*N *2624:5 *C 11.840 10.898
*N *2624:6 *C 31.752 20.656
*N *2624:7 *C 31.752 20.796
*N *2624:8 *C 31.752 20.626
*N *2624:9 *C 45.128 20.626
*N *2624:10 *C 45.280 20.626
*N *2624:11 *C 45.280 20.796
*N *2624:12 *C 45.268 20.808
*N *2624:13 *C 45.128 20.808
*N *2624:14 *C 45.128 20.796
*N *2624:15 *C 45.114 20.808
*N *2624:16 *C 31.766 20.808
*N *2624:17 *C 31.752 20.796
*N *2624:18 *C 31.739 20.808
*N *2624:19 *C 31.462 20.808
*N *2624:20 *C 31.448 20.794
*N *2624:21 *C 31.284 17.768
*N *2624:22 *C 31.297 17.768
*N *2624:23 *C 31.448 17.782
*N *2624:24 *C 31.434 17.768
*N *2624:25 *C 30.550 17.768
*N *2624:26 *C 30.536 17.755
*N *2624:27 *C 30.536 14.742
*N *2624:28 *C 30.523 14.728
*N *2624:29 *C 22.341 14.728
*N *2624:30 *C 22.328 14.715
*N *2624:31 *C 22.328 11.094
*N *2624:32 *C 22.315 11.080
*N *2624:33 *C 17.312 10.623
*N *2624:34 *C 17.312 10.320
*N *2624:35 *C 17.616 10.320
*N *2624:36 *C 17.616 11.067
*N *2624:37 *C 17.616 11.080
*N *2624:38 *C 11.854 11.080
*N *2624:39 *C 11.840 11.068

*CAP
0 *401:Q 0.001
1 *393:A4 0.001
2 *359:A2 0.01497757
3 *252:A 0.001
4 *115:A2 0.001
5 *2624:5 0.01974575
6 *2624:6 0.01386786
7 *2624:7 0.01530054
8 *2624:8 0.01271083
9 *2624:9 0.0095762
10 *2624:10 0.01600038
11 *2624:11 0.009823268
12 *2624:12 0.009615476
13 *2624:13 0.009616022
14 *2624:14 0.004833382
15 *2624:15 0.4191642
16 *2624:16 0.4191642
17 *2624:17 0.007968017
18 *2624:18 0.02098706
19 *2624:19 0.02335873
20 *2624:20 0.1848828
21 *2624:21 0.01290217
22 *2624:22 0.006884219
23 *2624:23 0.1938424
24 *2624:24 0.05585776
25 *2624:25 0.05585831
26 *2624:26 0.136741
27 *2624:27 0.136741
28 *2624:28 0.3962098
29 *2624:29 0.3962098
30 *2624:30 0.1447726
31 *2624:31 0.1447726
32 *2624:32 0.187008
33 *2624:33 0.02123377
34 *2624:34 0.03980592
35 *2624:35 0.06491484
36 *2624:36 0.04777537
37 *2624:37 0.4230683
38 *2624:38 0.2336886
39 *2624:39 0.01356863

*RES
0 *401:Q *2624:39 1
1 *2624:18 *2624:17 0.5
2 *2624:18 *2624:7 0.5
3 *2624:17 *2624:16 0.5
4 *2624:17 *2624:8 0.2825
5 *2624:16 *2624:15 23.8375
6 *2624:14 *2624:13 0.5
7 *2624:14 *2624:9 0.2825
8 *2624:15 *2624:14 0.5
9 *2624:13 *2624:12 0.2325
10 *2624:11 *252:A 1
11 *2624:11 *2624:10 0.2825
12 *2624:12 *2624:11 0.5
13 *2624:7 *2624:6 0.2325
14 *2624:6 *115:A2 1
15 *2624:20 *2624:19 0.5
16 *2624:19 *2624:18 0.4946429
17 *2624:21 *359:A2 0.2708333
18 *2624:22 *2624:21 1
19 *2624:23 *2624:22 0.2696429
20 *2624:23 *2624:20 5.380358
21 *2624:24 *2624:23 0.5
22 *2624:25 *2624:24 1.580357
23 *2624:26 *2624:25 0.5
24 *2624:28 *2624:27 0.5
25 *2624:27 *2624:26 5.380357
26 *2624:29 *2624:28 14.60893
27 *2624:30 *2624:29 0.5
28 *2624:32 *2624:31 0.5
29 *2624:31 *2624:30 6.466072
30 *2624:36 *2624:35 1.333036
31 *2624:37 *2624:36 0.5
32 *2624:37 *2624:32 8.390179
33 *2624:33 *393:A4 1
34 *2624:39 *2624:38 0.5
35 *2624:39 *2624:5 0.2825
36 *2624:38 *2624:37 10.29018
37 *2624:34 *2624:33 0.5410715
38 *2624:35 *2624:34 0.5428572

*END

*D_NET *2629 3.235394 //LENGTH 27.052 LUMPCC 0 DR

*CONN
*I *340:Q O *L 0 *C 27.192 37.090
*I *260:A3 I *L 0.664754 *C 25.368 40.720
*I *91:A2 I *L 0.515513 *C 17.616 45.280
*I *59:A4 I *L 0.552216 *C 16.856 42.392
*I *90:A2 I *L 0.504426 *C 15.640 45.736
*I *327:A2 I *L 0.52073 *C 27.877 42.848
*N *2629:6 *C 27.663 42.848
*N *2629:7 *C 27.648 42.836
*N *2629:8 *C 27.648 42.696
*N *2629:9 *C 27.635 42.696
*N *2629:10 *C 15.640 45.723
*N *2629:11 *C 15.640 44.838
*N *2629:12 *C 15.654 44.824
*N *2629:13 *C 16.856 42.393
*N *2629:14 *C 16.856 44.811
*N *2629:15 *C 16.856 44.824
*N *2629:16 *C 17.616 45.267
*N *2629:17 *C 17.616 44.838
*N *2629:18 *C 17.616 44.824
*N *2629:19 *C 24.139 44.824
*N *2629:20 *C 24.152 44.811
*N *2629:21 *C 24.152 42.710
*N *2629:22 *C 24.166 42.696
*N *2629:23 *C 25.368 40.733
*N *2629:24 *C 25.368 42.683
*N *2629:25 *C 25.368 42.696
*N *2629:26 *C 27.192 42.696
*N *2629:27 *C 27.192 42.683
*N *2629:28 *C 27.192 37.086
*N *2629:29 *C 27.192 37.072

*CAP
0 *340:Q 0.008482674
1 *260:A3 0.001
2 *91:A2 0.001
3 *59:A4 0.001
4 *90:A2 0.001
5 *327:A2 0.01988513
6 *2629:6 0.01780974
7 *2629:7 0.01152424
8 *2629:8 0.01122742
9 *2629:9 0.01982534
10 *2629:10 0.05987642
11 *2629:11 0.0613091
12 *2629:12 0.07496277
13 *2629:13 0.1393361
14 *2629:14 0.1407688
15 *2629:15 0.1211536
16 *2629:16 0.02877244
17 *2629:17 0.03020512
18 *2629:18 0.4542228
19 *2629:19 0.4080325
20 *2629:20 0.07894193
21 *2629:21 0.07894193
22 *2629:22 0.06024923
23 *2629:23 0.1267054
24 *2629:24 0.1281381
25 *2629:25 0.1471977
26 *2629:26 0.1067744
27 *2629:27 0.4451737
28 *2629:28 0.4454705
29 *2629:29 0.006407276

*RES
0 *340:Q *2629:29 0.02727273
1 *2629:8 *2629:7 0.2325
2 *2629:9 *2629:8 0.5
3 *2629:6 *327:A2 0.428
4 *2629:7 *2629:6 1
5 *2629:27 *2629:26 0.5
6 *2629:26 *2629:25 3.257143
7 *2629:26 *2629:9 0.7901787
8 *2629:29 *2629:28 1
9 *2629:28 *2629:27 9.994644
10 *2629:24 *2629:23 3.480357
11 *2629:25 *2629:24 0.5
12 *2629:25 *2629:22 2.147322
13 *2629:23 *260:A3 1
14 *2629:22 *2629:21 0.5
15 *2629:21 *2629:20 3.751786
16 *2629:19 *2629:18 11.64732
17 *2629:20 *2629:19 0.5
18 *2629:17 *2629:16 0.7660715
19 *2629:18 *2629:17 0.5
20 *2629:18 *2629:15 1.357143
21 *2629:16 *91:A2 1
22 *2629:14 *2629:13 4.316965
23 *2629:15 *2629:14 0.5
24 *2629:15 *2629:12 2.147322
25 *2629:13 *59:A4 1
26 *2629:11 *2629:10 1.580357
27 *2629:12 *2629:11 0.5
28 *2629:10 *90:A2 1

*END

*D_NET *2633 2.287265 //LENGTH 22.308 LUMPCC 0 DR

*CONN
*I *239:Q O *L 0 *C 30.840 29.016
*I *98:A2 I *L 0.504426 *C 22.176 31.144
*I *47:A4 I *L 0.552216 *C 22.299 29.158
*I *99:A2 I *L 0.515513 *C 25.064 31.600
*I *258:A2 I *L 0.578798 *C 32.512 34.184
*I *284:A5 I *L 0.583269 *C 33.424 29.320
*N *2633:6 *C 33.424 29.321
*N *2633:7 *C 33.424 29.611
*N *2633:8 *C 33.410 29.624
*N *2633:9 *C 32.512 34.171
*N *2633:10 *C 32.512 33.576
*N *2633:11 *C 32.360 33.576
*N *2633:12 *C 32.360 29.638
*N *2633:13 *C 32.360 29.624
*N *2633:14 *C 25.064 31.588
*N *2633:15 *C 22.221 29.168
*N *2633:16 *C 22.176 29.181
*N *2633:17 *C 22.176 31.144
*N *2633:18 *C 22.176 31.434
*N *2633:19 *C 22.190 31.448
*N *2633:20 *C 25.050 31.448
*N *2633:21 *C 25.064 31.422
*N *2633:22 *C 25.064 31.158
*N *2633:23 *C 25.078 31.144
*N *2633:24 *C 30.839 31.144
*N *2633:25 *C 30.840 31.143
*N *2633:26 *C 30.840 29.638
*N *2633:27 *C 30.854 29.624
*N *2633:28 *C 30.840 29.611
*N *2633:29 *C 30.840 29.030

*CAP
0 *239:Q 0.001
1 *98:A2 0.001
2 *47:A4 0.0103093
3 *99:A2 0.001
4 *258:A2 0.001
5 *284:A5 0.001
6 *2633:6 0.01826185
7 *2633:7 0.01969453
8 *2633:8 0.05211817
9 *2633:9 0.04079068
10 *2633:10 0.05389261
11 *2633:11 0.2596768
12 *2633:12 0.2480076
13 *2633:13 0.1264258
14 *2633:14 0.01014411
15 *2633:15 0.008233905
16 *2633:16 0.1295349
17 *2633:17 0.1526397
18 *2633:18 0.0224621
19 *2633:19 0.1398392
20 *2633:20 0.1398392
21 *2633:21 0.0407218
22 *2633:22 0.02677279
23 *2633:23 0.258722
24 *2633:24 0.2587226
25 *2633:25 0.06690571
26 *2633:26 0.06690571
27 *2633:27 0.06956378
28 *2633:28 0.0317562
29 *2633:29 0.03032352

*RES
0 *239:Q *2633:29 1
1 *2633:7 *2633:6 0.5169643
2 *2633:8 *2633:7 0.5
3 *2633:6 *284:A5 1
4 *2633:12 *2633:11 7.033036
5 *2633:13 *2633:12 0.5
6 *2633:13 *2633:8 1.875893
7 *2633:9 *258:A2 1
8 *2633:28 *2633:27 0.5
9 *2633:27 *2633:26 0.5
10 *2633:27 *2633:13 2.690179
11 *2633:29 *2633:28 1.0375
12 *2633:14 *99:A2 1
13 *2633:26 *2633:25 2.688393
14 *2633:24 *2633:23 10.28839
15 *2633:25 *2633:24 0.5
16 *2633:22 *2633:21 0.4723215
17 *2633:23 *2633:22 0.5
18 *2633:21 *2633:20 0.5
19 *2633:21 *2633:14 0.2758334
20 *2633:20 *2633:19 5.108929
21 *2633:18 *2633:17 0.5187501
22 *2633:19 *2633:18 0.5
23 *2633:17 *98:A2 1
24 *2633:17 *2633:16 3.504465
25 *2633:15 *47:A4 0.01666667
26 *2633:16 *2633:15 1
27 *2633:11 *2633:10 0.2714286
28 *2633:10 *2633:9 1.061607

*END

*D_NET *2634 2.106029 //LENGTH 22.204 LUMPCC 0 DR

*CONN
*I *238:Q O *L 0 *C 30.840 31.144
*I *99:A4 I *L 0.514778 *C 24.912 30.992
*I *98:A4 I *L 0.566007 *C 22.313 30.688
*I *49:A6 I *L 0.609639 *C 20.048 29.776
*I *279:A5 I *L 0.551519 *C 32.664 32.816
*I *283:A4 I *L 0.514778 *C 34.944 32.512
*N *2634:6 *C 31.144 30.962
*N *2634:7 *C 34.944 32.526
*N *2634:8 *C 34.944 33.259
*N *2634:9 *C 34.931 33.272
*N *2634:10 *C 32.664 32.830
*N *2634:11 *C 32.664 33.259
*N *2634:12 *C 32.664 33.272
*N *2634:13 *C 31.766 33.272
*N *2634:14 *C 31.752 33.259
*N *2634:15 *C 31.752 31.158
*N *2634:16 *C 31.739 31.144
*N *2634:17 *C 31.158 31.144
*N *2634:18 *C 31.144 31.132
*N *2634:19 *C 31.131 31.144
*N *2634:20 *C 30.993 31.144
*N *2634:21 *C 30.979 31.144
*N *2634:22 *C 20.048 29.777
*N *2634:23 *C 20.048 30.523
*N *2634:24 *C 20.062 30.536
*N *2634:25 *C 21.887 30.688
*N *2634:26 *C 21.872 30.676
*N *2634:27 *C 21.872 30.536
*N *2634:28 *C 21.872 30.536
*N *2634:29 *C 24.912 30.979
*N *2634:30 *C 24.912 30.550
*N *2634:31 *C 24.912 30.536
*N *2634:32 *C 30.827 30.536
*N *2634:33 *C 30.840 30.550
*N *2634:34 *C 30.840 31.144

*CAP
0 *238:Q 0.001
1 *99:A4 0.001
2 *98:A4 0.03178649
3 *49:A6 0.001
4 *279:A5 0.001
5 *283:A4 0.001
6 *2634:6 0.01244058
7 *2634:7 0.05153108
8 *2634:8 0.05296376
9 *2634:9 0.109124
10 *2634:10 0.03749504
11 *2634:11 0.03892772
12 *2634:12 0.1569487
13 *2634:13 0.04545297
14 *2634:14 0.07932089
15 *2634:15 0.07932141
16 *2634:16 0.02085569
17 *2634:17 0.02085569
18 *2634:18 0.007697758
19 *2634:19 0.009400192
20 *2634:20 0.009399646
21 *2634:21 0.008045438
22 *2634:22 0.05055742
23 *2634:23 0.0519901
24 *2634:24 0.09196516
25 *2634:25 0.0297111
26 *2634:26 0.0197903
27 *2634:27 0.01949348
28 *2634:28 0.2397922
29 *2634:29 0.03344803
30 *2634:30 0.03488071
31 *2634:31 0.4183214
32 *2634:32 0.2704944
33 *2634:33 0.03001626
34 *2634:34 0.03900123

*RES
0 *238:Q *2634:34 1
1 *2634:8 *2634:7 1.308929
2 *2634:9 *2634:8 0.5
3 *2634:7 *283:A4 1
4 *2634:11 *2634:10 0.7660714
5 *2634:12 *2634:11 0.5
6 *2634:12 *2634:9 4.047321
7 *2634:10 *279:A5 1
8 *2634:13 *2634:12 1.604464
9 *2634:14 *2634:13 0.5
10 *2634:15 *2634:14 3.751786
11 *2634:16 *2634:15 0.5
12 *2634:18 *2634:17 0.5
13 *2634:18 *2634:6 0.2825
14 *2634:17 *2634:16 1.0375
15 *2634:19 *2634:18 0.5
16 *2634:21 *2634:20 0.5
17 *2634:20 *2634:19 0.2455357
18 *2634:34 *2634:33 1.061607
19 *2634:34 *2634:21 0.2473214
20 *2634:33 *2634:32 0.5
21 *2634:32 *2634:31 10.56161
22 *2634:30 *2634:29 0.7660714
23 *2634:31 *2634:30 0.5
24 *2634:31 *2634:28 5.428572
25 *2634:29 *99:A4 1
26 *2634:27 *2634:26 0.2325
27 *2634:28 *2634:27 0.5
28 *2634:28 *2634:24 3.233036
29 *2634:25 *98:A4 0.8520001
30 *2634:26 *2634:25 1
31 *2634:23 *2634:22 1.33125
32 *2634:24 *2634:23 0.5
33 *2634:22 *49:A6 1

*END

*D_NET *2640 1.648151 //LENGTH 17.129 LUMPCC 0 DR

*CONN
*I *243:Q O *L 0 *C 35.096 22.328
*I *73:A4 I *L 0.566007 *C 33.564 20.656
*I *115:A4 I *L 0.552216 *C 31.600 21.112
*I *86:A1 I *L 0.484201 *C 34.184 19.288
*I *287:A3 I *L 0.456834 *C 41.480 24.152
*N *2640:5 *C 41.480 24.139
*N *2640:6 *C 41.480 22.038
*N *2640:7 *C 41.467 22.024
*N *2640:8 *C 34.184 19.302
*N *2640:9 *C 31.600 21.111
*N *2640:10 *C 31.600 20.518
*N *2640:11 *C 31.614 20.504
*N *2640:12 *C 33.437 20.656
*N *2640:13 *C 33.424 20.643
*N *2640:14 *C 33.424 20.504
*N *2640:15 *C 33.424 20.504
*N *2640:16 *C 34.171 20.504
*N *2640:17 *C 34.184 20.491
*N *2640:18 *C 34.032 20.504
*N *2640:19 *C 34.032 22.011
*N *2640:20 *C 34.046 22.024
*N *2640:21 *C 35.096 22.024
*N *2640:22 *C 35.096 22.038
*N *2640:23 *C 35.096 22.315

*CAP
0 *243:Q 0.001
1 *73:A4 0.01571883
2 *115:A4 0.001
3 *86:A1 0.001
4 *287:A3 0.001
5 *2640:5 0.09904962
6 *2640:6 0.1004823
7 *2640:7 0.2922046
8 *2640:8 0.06223676
9 *2640:9 0.04158363
10 *2640:10 0.04301631
11 *2640:11 0.08259289
12 *2640:12 0.01364343
13 *2640:13 0.01705115
14 *2640:14 0.01675432
15 *2640:15 0.1171792
16 *2640:16 0.03221412
17 *2640:17 0.07222032
18 *2640:18 0.1108087
19 *2640:19 0.0998856
20 *2640:20 0.04742932
21 *2640:21 0.3420061
22 *2640:22 0.01975302
23 *2640:23 0.01832034

*RES
0 *243:Q *2640:23 1
1 *2640:6 *2640:5 3.751786
2 *2640:7 *2640:6 0.5
3 *2640:5 *287:A3 1
4 *2640:22 *2640:21 0.5
5 *2640:21 *2640:20 1.875893
6 *2640:21 *2640:7 11.37589
7 *2640:23 *2640:22 0.4946429
8 *2640:8 *86:A1 1
9 *2640:19 *2640:18 2.690179
10 *2640:20 *2640:19 0.5
11 *2640:17 *2640:16 0.5
12 *2640:17 *2640:8 2.123214
13 *2640:16 *2640:15 1.333036
14 *2640:14 *2640:13 0.2325
15 *2640:15 *2640:14 0.5
16 *2640:15 *2640:11 3.233036
17 *2640:12 *73:A4 0.2116667
18 *2640:13 *2640:12 1
19 *2640:10 *2640:9 1.059821
20 *2640:11 *2640:10 0.5
21 *2640:9 *115:A4 1
22 *2640:18 *2640:17 0.2714286

*END

*D_NET *2643 2.937956 //LENGTH 31.396 LUMPCC 0 DR

*CONN
*I *246:Q O *L 0 *C 38.440 17.768
*I *256:A1 I *L 0.666174 *C 44.064 17.616
*I *300:A1 I *L 0.483711 *C 45.280 12.600
*I *300:A3 I *L 0.536755 *C 45.888 12.296
*I *85:A4 I *L 0.514778 *C 45.736 9.104
*I *69:A6 I *L 0.558565 *C 40.720 7.128
*I *303:A2 I *L 0.509119 *C 46.800 8.952
*I *84:A4 I *L 0.566007 *C 45.572 7.280
*N *2643:8 *C 38.440 17.586
*N *2643:9 *C 38.136 17.586
*N *2643:10 *C 45.445 7.280
*N *2643:11 *C 45.432 7.280
*N *2643:12 *C 45.432 7.420
*N *2643:13 *C 45.446 7.432
*N *2643:14 *C 45.875 7.432
*N *2643:15 *C 45.888 7.446
*N *2643:16 *C 46.800 8.939
*N *2643:17 *C 46.800 8.053
*N *2643:18 *C 46.787 8.040
*N *2643:19 *C 40.720 7.129
*N *2643:20 *C 40.720 8.027
*N *2643:21 *C 40.733 8.040
*N *2643:22 *C 45.888 8.040
*N *2643:23 *C 45.888 8.040
*N *2643:24 *C 45.736 9.091
*N *2643:25 *C 45.736 8.952
*N *2643:26 *C 45.888 8.952
*N *2643:27 *C 45.888 12.296
*N *2643:28 *C 45.888 12.587
*N *2643:29 *C 45.875 12.600
*N *2643:30 *C 45.280 12.418
*N *2643:31 *C 45.280 12.588
*N *2643:32 *C 45.280 12.600
*N *2643:33 *C 44.230 12.600
*N *2643:34 *C 44.216 12.614
*N *2643:35 *C 44.064 17.602
*N *2643:36 *C 44.064 15.958
*N *2643:37 *C 44.064 15.944
*N *2643:38 *C 44.204 15.944
*N *2643:39 *C 44.216 15.944
*N *2643:40 *C 44.216 17.755
*N *2643:41 *C 44.203 17.768
*N *2643:42 *C 38.150 17.768
*N *2643:43 *C 38.136 17.756
*N *2643:44 *C 38.150 17.768
*N *2643:45 *C 38.427 17.768
*N *2643:46 *C 38.440 17.756

*CAP
0 *246:Q 0.001
1 *256:A1 0.001
2 *300:A1 0.001
3 *300:A3 0.001
4 *85:A4 0.001
5 *69:A6 0.001
6 *303:A2 0.001
7 *84:A4 0.01661113
8 *2643:8 0.01775312
9 *2643:9 0.01081519
10 *2643:10 0.01453573
11 *2643:11 0.01475536
12 *2643:12 0.01445854
13 *2643:13 0.02400957
14 *2643:14 0.02400957
15 *2643:15 0.03428493
16 *2643:16 0.05369299
17 *2643:17 0.05512567
18 *2643:18 0.0396543
19 *2643:19 0.05095781
20 *2643:20 0.05239049
21 *2643:21 0.2301501
22 *2643:22 0.2721766
23 *2643:23 0.0990456
24 *2643:24 0.01366461
25 *2643:25 0.02658191
26 *2643:26 0.2788463
27 *2643:27 0.2242445
28 *2643:28 0.020704
29 *2643:29 0.02670683
30 *2643:30 0.01954035
31 *2643:31 0.01336323
32 *2643:32 0.07786779
33 *2643:33 0.04878929
34 *2643:34 0.1654976
35 *2643:35 0.1038809
36 *2643:36 0.1053135
37 *2643:37 0.009183697
38 *2643:38 0.009184243
39 *2643:39 0.2473428
40 *2643:40 0.07947402
41 *2643:41 0.1917143
42 *2643:42 0.1917143
43 *2643:43 0.006072376
44 *2643:44 0.01763373
45 *2643:45 0.01763319
46 *2643:46 0.01157601

*RES
0 *246:Q *2643:46 1
1 *2643:17 *2643:16 1.580357
2 *2643:18 *2643:17 0.5
3 *2643:16 *303:A2 1
4 *2643:27 *300:A3 1
5 *2643:27 *2643:26 5.971429
6 *2643:23 *2643:22 0.5
7 *2643:23 *2643:15 1.061607
8 *2643:22 *2643:21 9.204465
9 *2643:22 *2643:18 1.604464
10 *2643:24 *85:A4 1
11 *2643:15 *2643:14 0.5
12 *2643:14 *2643:13 0.7660714
13 *2643:12 *2643:11 0.2325
14 *2643:13 *2643:12 0.5
15 *2643:10 *84:A4 0.2116667
16 *2643:11 *2643:10 1
17 *2643:28 *2643:27 0.5187501
18 *2643:29 *2643:28 0.5
19 *2643:31 *300:A1 1
20 *2643:31 *2643:30 0.2825
21 *2643:32 *2643:31 0.5
22 *2643:32 *2643:29 1.061607
23 *2643:33 *2643:32 1.875893
24 *2643:34 *2643:33 0.5
25 *2643:38 *2643:37 0.2325
26 *2643:39 *2643:38 0.5
27 *2643:39 *2643:34 5.947322
28 *2643:36 *2643:35 2.9375
29 *2643:37 *2643:36 0.5
30 *2643:35 *256:A1 1
31 *2643:20 *2643:19 1.602679
32 *2643:21 *2643:20 0.5
33 *2643:19 *69:A6 1
34 *2643:40 *2643:39 3.233036
35 *2643:41 *2643:40 0.5
36 *2643:43 *2643:42 0.5
37 *2643:43 *2643:9 0.2825
38 *2643:42 *2643:41 10.80893
39 *2643:44 *2643:43 0.5
40 *2643:46 *2643:45 0.5
41 *2643:46 *2643:8 0.2825
42 *2643:45 *2643:44 0.4946429
43 *2643:25 *2643:24 0.2473214
44 *2643:26 *2643:25 0.2714286
45 *2643:26 *2643:23 1.628572

*END

*D_NET *2650 1.292248 //LENGTH 12.313 LUMPCC 0 DR

*CONN
*I *373:Q O *L 0 *C 34.792 8.952
*I *345:A4 I *L 0.569168 *C 32.056 7.280
*I *67:A4 I *L 0.552216 *C 38.104 7.736
*I *76:A I *L 0.582888 *C 36.920 5.912
*N *2650:4 *C 36.920 5.926
*N *2650:5 *C 36.920 6.824
*N *2650:6 *C 37.072 6.824
*N *2650:7 *C 37.072 7.723
*N *2650:8 *C 37.086 7.736
*N *2650:9 *C 37.666 7.736
*N *2650:10 *C 37.695 7.736
*N *2650:11 *C 37.680 7.750
*N *2650:12 *C 37.680 8.635
*N *2650:13 *C 37.666 8.648
*N *2650:14 *C 32.056 7.281
*N *2650:15 *C 32.056 8.331
*N *2650:16 *C 32.070 8.344
*N *2650:17 *C 33.880 8.344
*N *2650:18 *C 33.880 8.648
*N *2650:19 *C 34.640 8.648
*N *2650:20 *C 34.641 8.648
*N *2650:21 *C 34.792 8.648
*N *2650:22 *C 34.792 8.939

*CAP
0 *373:Q 0.001
1 *345:A4 0.001
2 *67:A4 0.03689525
3 *76:A 0.001
4 *2650:4 0.05196263
5 *2650:5 0.06456602
6 *2650:6 0.08736151
7 *2650:7 0.07619079
8 *2650:8 0.03375265
9 *2650:9 0.03375265
10 *2650:10 0.03481986
11 *2650:11 0.04849782
12 *2650:12 0.05057322
13 *2650:13 0.150968
14 *2650:14 0.06535034
15 *2650:15 0.06678302
16 *2650:16 0.08415202
17 *2650:17 0.09999646
18 *2650:18 0.0525279
19 *2650:19 0.1900237
20 *2650:20 0.007049789
21 *2650:21 0.03362589
22 *2650:22 0.02039899

*RES
0 *373:Q *2650:22 1
1 *2650:10 *67:A4 0.8180001
2 *2650:11 *2650:10 1
3 *2650:11 *2650:9 0.5
4 *2650:9 *2650:8 1.0375
5 *2650:7 *2650:6 1.604464
6 *2650:8 *2650:7 0.5
7 *2650:4 *76:A 1
8 *2650:12 *2650:11 1.580357
9 *2650:13 *2650:12 0.5
10 *2650:20 *2650:19 0.5
11 *2650:19 *2650:18 1.357143
12 *2650:19 *2650:13 5.404465
13 *2650:22 *2650:21 0.5187501
14 *2650:15 *2650:14 1.874107
15 *2650:16 *2650:15 0.5
16 *2650:14 *345:A4 1
17 *2650:21 *2650:20 0.2696429
18 *2650:5 *2650:4 1.604464
19 *2650:6 *2650:5 0.2714286
20 *2650:17 *2650:16 3.233036
21 *2650:18 *2650:17 0.5428572

*END

*D_NET *2654 1.293985 //LENGTH 10.734 LUMPCC 0 DR

*CONN
*I *361:Q O *L 0 *C 18.224 37.832
*I *349:A4 I *L 0.569168 *C 18.832 40.720
*I *89:A I *L 0.582888 *C 16.278 44.216
*I *61:A4 I *L 0.552216 *C 18.832 42.392
*N *2654:4 *C 18.832 42.391
*N *2654:5 *C 17.145 44.216
*N *2654:6 *C 17.160 44.203
*N *2654:7 *C 17.160 41.797
*N *2654:8 *C 17.174 41.784
*N *2654:9 *C 18.819 41.784
*N *2654:10 *C 18.832 41.784
*N *2654:11 *C 18.832 40.720
*N *2654:12 *C 18.832 38.758
*N *2654:13 *C 18.819 38.744
*N *2654:14 *C 18.238 38.744
*N *2654:15 *C 18.224 38.730
*N *2654:16 *C 18.224 37.846

*CAP
0 *361:Q 0.001
1 *349:A4 0.001
2 *89:A 0.05631652
3 *61:A4 0.001
4 *2654:4 0.03722009
5 *2654:5 0.05424112
6 *2654:6 0.1321556
7 *2654:7 0.1318588
8 *2654:8 0.09346493
9 *2654:9 0.09346493
10 *2654:10 0.1195303
11 *2654:11 0.2381304
12 *2654:12 0.1586856
13 *2654:13 0.0338494
14 *2654:14 0.0338494
15 *2654:15 0.05482542
16 *2654:16 0.05339274

*RES
0 *361:Q *2654:16 1
1 *2654:4 *61:A4 1
2 *2654:11 *349:A4 1
3 *2654:11 *2654:10 1.9
4 *2654:12 *2654:11 3.504464
5 *2654:13 *2654:12 0.5
6 *2654:15 *2654:14 0.5
7 *2654:14 *2654:13 1.0375
8 *2654:16 *2654:15 1.580357
9 *2654:10 *2654:9 0.5
10 *2654:10 *2654:4 1.083929
11 *2654:9 *2654:8 2.9375
12 *2654:7 *2654:6 4.294643
13 *2654:8 *2654:7 0.5
14 *2654:5 *89:A 1.734
15 *2654:6 *2654:5 1

*END

*D_NET *2657 0.9617262 //LENGTH 8.519 LUMPCC 0 DR

*CONN
*I *368:Q O *L 0 *C 18.376 31.144
*I *352:A4 I *L 0.569168 *C 20.352 30.688
*I *47:A6 I *L 0.609639 *C 21.720 29.776
*I *96:A I *L 0.582888 *C 22.012 32.694
*N *2657:4 *C 21.885 32.664
*N *2657:5 *C 21.872 32.651
*N *2657:6 *C 21.872 31.752
*N *2657:7 *C 21.720 31.752
*N *2657:8 *C 21.720 29.777
*N *2657:9 *C 21.720 31.144
*N *2657:10 *C 21.707 31.144
*N *2657:11 *C 20.338 30.688
*N *2657:12 *C 20.200 30.688
*N *2657:13 *C 20.200 31.131
*N *2657:14 *C 20.200 31.144
*N *2657:15 *C 20.200 31.448
*N *2657:16 *C 18.390 31.448
*N *2657:17 *C 18.376 31.434
*N *2657:18 *C 18.376 31.158

*CAP
0 *368:Q 0.001
1 *352:A4 0.001
2 *47:A6 0.001
3 *96:A 0.0158015
4 *2657:4 0.0137261
5 *2657:5 0.07806252
6 *2657:6 0.0886805
7 *2657:7 0.05504521
8 *2657:8 0.09426118
9 *2657:9 0.1421965
10 *2657:10 0.07343344
11 *2657:11 0.006579431
12 *2657:12 0.0415596
13 *2657:13 0.02880305
14 *2657:14 0.08779941
15 *2657:15 0.1011362
16 *2657:16 0.08439799
17 *2657:17 0.02433812
18 *2657:18 0.02290544

*RES
0 *368:Q *2657:18 1
1 *2657:4 *96:A 0.2133334
2 *2657:5 *2657:4 1
3 *2657:8 *47:A6 1
4 *2657:9 *2657:8 2.441072
5 *2657:9 *2657:7 1.085714
6 *2657:10 *2657:9 0.5
7 *2657:13 *2657:12 0.7901786
8 *2657:14 *2657:13 0.5
9 *2657:14 *2657:10 2.690179
10 *2657:11 *352:A4 1
11 *2657:17 *2657:16 0.5
12 *2657:16 *2657:15 3.233036
13 *2657:18 *2657:17 0.4946429
14 *2657:12 *2657:11 0.2473214
15 *2657:7 *2657:6 0.2714286
16 *2657:6 *2657:5 1.604464
17 *2657:15 *2657:14 0.5428572

*END

*D_NET *2662 0.3776886 //LENGTH 4.566 LUMPCC 0 DR

*CONN
*I *224:Q O *L 0 *C 13.816 35.704
*I *312:A1 I *L 0.588749 *C 12.600 32.816
*N *2662:2 *C 13.816 35.522
*N *2662:3 *C 12.600 32.830
*N *2662:4 *C 12.600 35.691
*N *2662:5 *C 12.614 35.704
*N *2662:6 *C 13.803 35.704
*N *2662:7 *C 13.816 35.692

*CAP
0 *224:Q 0.001
1 *312:A1 0.001
2 *2662:2 0.01500578
3 *2662:3 0.117964
4 *2662:4 0.1193967
5 *2662:5 0.05724677
6 *2662:6 0.05724677
7 *2662:7 0.008828663

*RES
0 *224:Q *2662:7 1
1 *2662:3 *312:A1 1
2 *2662:4 *2662:3 5.108929
3 *2662:5 *2662:4 0.5
4 *2662:7 *2662:6 0.5
5 *2662:7 *2662:2 0.2825
6 *2662:6 *2662:5 2.123214

*END

*D_NET *2664 0.07209683 //LENGTH 0.439 LUMPCC 0 DR

*CONN
*I *504:Y O *L 0 *C 12.283 6.064
*I *232:D I *L 0.543569 *C 12.722 6.064

*CAP
0 *504:Y 0.03604842
1 *232:D 0.03604842

*RES
0 *504:Y *232:D 0.8780001

*END

*D_NET *2667 0.4333498 //LENGTH 5.471 LUMPCC 0 DR

*CONN
*I *311:Y O *L 0 *C 7.646 16.248
*I *231:D I *L 0.543569 *C 11.536 17.312
*N *2667:2 *C 7.888 16.066
*N *2667:3 *C 11.536 17.299
*N *2667:4 *C 11.536 16.262
*N *2667:5 *C 11.523 16.248
*N *2667:6 *C 7.902 16.248
*N *2667:7 *C 7.888 16.236
*N *2667:8 *C 7.873 16.248

*CAP
0 *311:Y 0.01991297
1 *231:D 0.001
2 *2667:2 0.01318962
3 *2667:3 0.04479423
4 *2667:4 0.04622691
5 *2667:5 0.1408232
6 *2667:6 0.1408232
7 *2667:7 0.008742002
8 *2667:8 0.01783758

*RES
0 *311:Y *2667:8 0.4540001
1 *2667:3 *231:D 1
2 *2667:4 *2667:3 1.851786
3 *2667:5 *2667:4 0.5
4 *2667:7 *2667:6 0.5
5 *2667:7 *2667:2 0.2825
6 *2667:6 *2667:5 6.466072
7 *2667:8 *2667:7 1

*END

*D_NET *2670 0.4780633 //LENGTH 5.954 LUMPCC 0 DR

*CONN
*I *104:Y O *L 0 *C 8.040 23.848
*I *226:D I *L 0.543569 *C 12.600 24.000
*N *2670:2 *C 12.600 24.014
*N *2670:3 *C 12.600 24.443
*N *2670:4 *C 12.587 24.456
*N *2670:5 *C 8.053 24.456
*N *2670:6 *C 8.040 24.443
*N *2670:7 *C 8.040 23.861

*CAP
0 *104:Y 0.001
1 *226:D 0.001
2 *2670:2 0.02170544
3 *2670:3 0.02313812
4 *2670:4 0.1782856
5 *2670:5 0.1782856
6 *2670:6 0.03804066
7 *2670:7 0.03660798

*RES
0 *104:Y *2670:7 1
1 *2670:2 *226:D 1
2 *2670:3 *2670:2 0.7660714
3 *2670:4 *2670:3 0.5
4 *2670:6 *2670:5 0.5
5 *2670:5 *2670:4 8.094644
6 *2670:7 *2670:6 1.0375

*END

*D_NET *2674 0.5309305 //LENGTH 4.351 LUMPCC 0 DR

*CONN
*I *74:Y O *L 0 *C 8.648 43.000
*I *230:D I *L 0.543569 *C 9.226 39.504
*N *2674:2 *C 8.815 39.504
*N *2674:3 *C 8.800 39.518
*N *2674:4 *C 8.800 41.480
*N *2674:5 *C 8.648 41.480
*N *2674:6 *C 8.648 42.986

*CAP
0 *74:Y 0.001
1 *230:D 0.03078915
2 *2674:2 0.02871375
3 *2674:3 0.1425987
4 *2674:4 0.1532477
5 *2674:5 0.09347989
6 *2674:6 0.08110136

*RES
0 *74:Y *2674:6 1
1 *2674:2 *230:D 0.8220001
2 *2674:3 *2674:2 1
3 *2674:6 *2674:5 2.690179
4 *2674:5 *2674:4 0.2714286
5 *2674:4 *2674:3 3.504465

*END

*D_NET *2677 0.7290228 //LENGTH 7.930 LUMPCC 0 DR

*CONN
*I *211:Y O *L 0 *C 10.624 43.000
*I *224:D I *L 0.543569 *C 9.864 36.160
*N *2677:2 *C 9.864 36.174
*N *2677:3 *C 9.864 38.123
*N *2677:4 *C 9.878 38.136
*N *2677:5 *C 10.611 38.136
*N *2677:6 *C 10.624 38.150
*N *2677:7 *C 10.624 42.986

*CAP
0 *211:Y 0.001
1 *224:D 0.001
2 *2677:2 0.09581231
3 *2677:3 0.09724499
4 *2677:4 0.03661522
5 *2677:5 0.03661522
6 *2677:6 0.2310839
7 *2677:7 0.2296512

*RES
0 *211:Y *2677:7 1
1 *2677:2 *224:D 1
2 *2677:3 *2677:2 3.480357
3 *2677:4 *2677:3 0.5
4 *2677:6 *2677:5 0.5
5 *2677:5 *2677:4 1.308929
6 *2677:7 *2677:6 8.637501

*END

*D_NET *2681 0.9518898 //LENGTH 9.355 LUMPCC 0 DR

*CONN
*I *156:Y O *L 0 *C 6.520 44.064
*I *157:A2 I *L 0.466516 *C 5.760 37.528
*I *166:A4 I *L 0.514778 *C 6.520 35.856
*N *2681:3 *C 6.520 35.857
*N *2681:4 *C 5.760 37.396
*N *2681:5 *C 5.760 37.516
*N *2681:6 *C 5.774 37.528
*N *2681:7 *C 6.506 37.528
*N *2681:8 *C 6.520 37.528
*N *2681:9 *C 6.520 44.050

*CAP
0 *156:Y 0.001
1 *157:A2 0.001
2 *166:A4 0.001
3 *2681:3 0.1021698
4 *2681:4 0.01300383
5 *2681:5 0.005022817
6 *2681:6 0.02816065
7 *2681:7 0.03013749
8 *2681:8 0.4389013
9 *2681:9 0.3314939

*RES
0 *156:Y *2681:9 1
1 *2681:9 *2681:8 11.64732
2 *2681:3 *166:A4 1
3 *2681:8 *2681:7 0.5
4 *2681:8 *2681:3 2.983929
5 *2681:7 *2681:6 1.308929
6 *2681:5 *157:A2 1
7 *2681:5 *2681:4 0.1991667
8 *2681:6 *2681:5 0.5

*END

*D_NET *2684 0.5770418 //LENGTH 6.406 LUMPCC 0 DR

*CONN
*I *155:Y O *L 0 *C 8.496 44.368
*I *156:A I *L 0.582888 *C 6.824 44.216
*I *74:A2 I *L 0.515513 *C 9.864 41.936
*I *74:A1 I *L 0.484201 *C 10.016 42.696
*N *2684:4 *C 10.015 42.696
*N *2684:5 *C 9.864 41.950
*N *2684:6 *C 9.864 42.696
*N *2684:7 *C 9.864 43.291
*N *2684:8 *C 9.851 43.304
*N *2684:9 *C 8.510 43.304
*N *2684:10 *C 8.496 43.318
*N *2684:11 *C 6.824 44.034
*N *2684:12 *C 6.824 44.204
*N *2684:13 *C 6.838 44.216
*N *2684:14 *C 8.482 44.216
*N *2684:15 *C 8.496 44.190
*N *2684:16 *C 8.496 44.355

*CAP
0 *155:Y 0.001
1 *156:A 0.001
2 *74:A2 0.001
3 *74:A1 0.001
4 *2684:4 0.004612897
5 *2684:5 0.03850652
6 *2684:6 0.08314005
7 *2684:7 0.03003863
8 *2684:8 0.06028251
9 *2684:9 0.06028251
10 *2684:10 0.05860993
11 *2684:11 0.01263643
12 *2684:12 0.006459314
13 *2684:13 0.07003845
14 *2684:14 0.07003845
15 *2684:15 0.07040547
16 *2684:16 0.007990648

*RES
0 *155:Y *2684:16 1
1 *2684:4 *74:A1 1
2 *2684:5 *74:A2 1
3 *2684:16 *2684:15 0.2758334
4 *2684:7 *2684:6 1.061607
5 *2684:8 *2684:7 0.5
6 *2684:10 *2684:9 0.5
7 *2684:9 *2684:8 2.394643
8 *2684:15 *2684:14 0.5
9 *2684:15 *2684:10 1.558036
10 *2684:14 *2684:13 2.9375
11 *2684:12 *156:A 1
12 *2684:12 *2684:11 0.2825
13 *2684:13 *2684:12 0.5
14 *2684:6 *2684:5 1.333036
15 *2684:6 *2684:4 0.2696429

*END

*D_NET *2686 0.7665522 //LENGTH 7.767 LUMPCC 0 DR

*CONN
*I *153:Y O *L 0 *C 5.456 41.024
*I *78:A2 I *L 0.515513 *C 7.584 38.592
*I *78:A1 I *L 0.484201 *C 7.629 39.352
*I *154:A I *L 0.582888 *C 6.824 42.696
*N *2686:4 *C 6.824 42.683
*N *2686:5 *C 7.584 39.352
*N *2686:6 *C 7.584 39.339
*N *2686:7 *C 7.584 38.605
*N *2686:8 *C 7.584 38.758
*N *2686:9 *C 7.571 38.744
*N *2686:10 *C 6.838 38.744
*N *2686:11 *C 6.824 38.758
*N *2686:12 *C 6.824 41.176
*N *2686:13 *C 6.811 41.176
*N *2686:14 *C 5.470 41.176
*N *2686:15 *C 5.456 41.163
*N *2686:16 *C 5.456 41.024

*CAP
0 *153:Y 0.001
1 *78:A2 0.001
2 *78:A1 0.01048095
3 *154:A 0.001
4 *2686:4 0.07415092
5 *2686:5 0.008405552
6 *2686:6 0.04299493
7 *2686:7 0.01291783
8 *2686:8 0.05942084
9 *2686:9 0.03394215
10 *2686:10 0.03394215
11 *2686:11 0.1381841
12 *2686:12 0.2161399
13 *2686:13 0.05386866
14 *2686:14 0.05386866
15 *2686:15 0.01333414
16 *2686:16 0.01190146

*RES
0 *153:Y *2686:16 1
1 *2686:5 *78:A1 0.09166668
2 *2686:6 *2686:5 1
3 *2686:7 *78:A2 1
4 *2686:4 *154:A 1
5 *2686:8 *2686:7 0.255
6 *2686:8 *2686:6 1.0375
7 *2686:9 *2686:8 0.5
8 *2686:11 *2686:10 0.5
9 *2686:10 *2686:9 1.308929
10 *2686:12 *2686:11 4.318749
11 *2686:12 *2686:4 2.690179
12 *2686:13 *2686:12 0.5
13 *2686:15 *2686:14 0.5
14 *2686:14 *2686:13 2.394643
15 *2686:16 *2686:15 0.2325

*END

*D_NET *2688 1.427864 //LENGTH 13.337 LUMPCC 0 DR

*CONN
*I *151:Y O *L 0 *C 6.368 29.168
*I *265:A1 I *L 0.484201 *C 7.280 29.320
*I *265:A2 I *L 0.515513 *C 7.432 28.560
*I *152:A I *L 0.582888 *C 5.790 39.352
*N *2688:4 *C 6.201 39.352
*N *2688:5 *C 6.216 39.339
*N *2688:6 *C 6.216 38.440
*N *2688:7 *C 6.368 38.440
*N *2688:8 *C 7.432 28.574
*N *2688:9 *C 7.281 29.320
*N *2688:10 *C 7.432 29.306
*N *2688:11 *C 7.419 29.320
*N *2688:12 *C 6.381 29.320
*N *2688:13 *C 6.368 29.334
*N *2688:14 *C 6.368 29.181

*CAP
0 *151:Y 0.001
1 *265:A1 0.001
2 *265:A2 0.001
3 *152:A 0.0300421
4 *2688:4 0.0279667
5 *2688:5 0.06540191
6 *2688:6 0.07549979
7 *2688:7 0.5035306
8 *2688:8 0.04055056
9 *2688:9 0.005734426
10 *2688:10 0.05152256
11 *2688:11 0.05464273
12 *2688:12 0.05464273
13 *2688:13 0.5061356
14 *2688:14 0.00919474

*RES
0 *151:Y *2688:14 1
1 *2688:8 *265:A2 1
2 *2688:9 *265:A1 1
3 *2688:10 *2688:9 0.2696429
4 *2688:10 *2688:8 1.308929
5 *2688:11 *2688:10 0.5
6 *2688:13 *2688:12 0.5
7 *2688:13 *2688:7 16.26161
8 *2688:12 *2688:11 1.851786
9 *2688:14 *2688:13 0.255
10 *2688:4 *152:A 0.8220001
11 *2688:5 *2688:4 1
12 *2688:6 *2688:5 1.604464
13 *2688:7 *2688:6 0.2714286

*END

*D_NET *2690 0.4473944 //LENGTH 5.067 LUMPCC 0 DR

*CONN
*I *149:Y O *L 0 *C 6.976 25.824
*I *87:A1 I *L 0.484201 *C 7.128 27.496
*I *150:A I *L 0.582888 *C 5.456 27.496
*I *87:A2 I *L 0.515513 *C 7.280 28.256
*N *2690:4 *C 7.267 28.256
*N *2690:5 *C 7.128 28.256
*N *2690:6 *C 5.456 27.314
*N *2690:7 *C 5.456 27.484
*N *2690:8 *C 5.470 27.496
*N *2690:9 *C 7.115 27.496
*N *2690:10 *C 7.128 27.510
*N *2690:11 *C 6.976 27.496
*N *2690:12 *C 6.976 25.838

*CAP
0 *149:Y 0.001
1 *87:A1 0.001
2 *150:A 0.001
3 *87:A2 0.001
4 *2690:4 0.005700624
5 *2690:5 0.05020576
6 *2690:6 0.01278583
7 *2690:7 0.006608717
8 *2690:8 0.06491695
9 *2690:9 0.06491695
10 *2690:10 0.04303703
11 *2690:11 0.1037707
12 *2690:12 0.0914519

*RES
0 *149:Y *2690:12 1
1 *2690:4 *87:A2 1
2 *2690:10 *87:A1 1
3 *2690:10 *2690:9 0.5
4 *2690:10 *2690:5 1.333036
5 *2690:12 *2690:11 2.961607
6 *2690:9 *2690:8 2.9375
7 *2690:7 *150:A 1
8 *2690:7 *2690:6 0.2825
9 *2690:8 *2690:7 0.5
10 *2690:11 *2690:10 0.2714286
11 *2690:5 *2690:4 0.2473214

*END

*D_NET *2692 0.3214386 //LENGTH 3.885 LUMPCC 0 DR

*CONN
*I *146:Y O *L 0 *C 5.608 22.784
*I *104:A3 I *L 0.539281 *C 7.280 24.456
*I *147:A1 I *L 0.549073 *C 5.608 24.456
*N *2692:3 *C 7.294 24.456
*N *2692:4 *C 7.431 24.456
*N *2692:5 *C 7.419 24.456
*N *2692:6 *C 5.622 24.456
*N *2692:7 *C 5.608 24.443
*N *2692:8 *C 5.608 22.797

*CAP
0 *146:Y 0.001
1 *104:A3 0.001
2 *147:A1 0.001
3 *2692:3 0.006570352
4 *2692:4 0.00800303
5 *2692:5 0.07350469
6 *2692:6 0.07152785
7 *2692:7 0.07724179
8 *2692:8 0.08159085

*RES
0 *146:Y *2692:8 1
1 *2692:7 *2692:6 0.5
2 *2692:7 *147:A1 1
3 *2692:6 *2692:5 3.208929
4 *2692:4 *2692:3 0.2455357
5 *2692:5 *2692:4 0.5
6 *2692:3 *104:A3 1
7 *2692:8 *2692:7 2.9375

*END

*D_NET *2695 0.5940502 //LENGTH 6.577 LUMPCC 0 DR

*CONN
*I *143:Y O *L 0 *C 6.216 17.616
*I *144:A I *L 0.582888 *C 5.456 20.808
*I *310:A2 I *L 0.515513 *C 6.976 18.528
*I *310:A1 I *L 0.484201 *C 7.021 19.288
*N *2695:4 *C 6.976 19.288
*N *2695:5 *C 6.976 19.274
*N *2695:6 *C 6.976 18.541
*N *2695:7 *C 6.976 18.694
*N *2695:8 *C 6.963 18.680
*N *2695:9 *C 6.216 18.680
*N *2695:10 *C 5.456 20.794
*N *2695:11 *C 5.456 18.390
*N *2695:12 *C 5.470 18.376
*N *2695:13 *C 6.216 18.377
*N *2695:14 *C 6.216 18.363
*N *2695:15 *C 6.216 17.630

*CAP
0 *143:Y 0.001
1 *144:A 0.001
2 *310:A2 0.001
3 *310:A1 0.009455501
4 *2695:4 0.007380102
5 *2695:5 0.03680994
6 *2695:6 0.01094694
7 *2695:7 0.05126496
8 *2695:8 0.03336908
9 *2695:9 0.04789903
10 *2695:10 0.1010977
11 *2695:11 0.1025303
12 *2695:12 0.02951957
13 *2695:13 0.0416773
14 *2695:14 0.06026624
15 *2695:15 0.05883356

*RES
0 *143:Y *2695:15 1
1 *2695:4 *310:A1 0.09166667
2 *2695:5 *2695:4 1
3 *2695:6 *310:A2 1
4 *2695:7 *2695:6 0.255
5 *2695:7 *2695:5 1.0375
6 *2695:8 *2695:7 0.5
7 *2695:14 *2695:13 0.5
8 *2695:13 *2695:12 1.333036
9 *2695:13 *2695:9 0.5410715
10 *2695:15 *2695:14 1.308929
11 *2695:11 *2695:10 4.294643
12 *2695:12 *2695:11 0.5
13 *2695:10 *144:A 1
14 *2695:9 *2695:8 1.333036

*END

*D_NET *2698 0.2931196 //LENGTH 3.274 LUMPCC 0 DR

*CONN
*I *140:Y O *L 0 *C 6.216 13.968
*I *311:A3 I *L 0.539281 *C 6.824 15.640
*I *141:A1 I *L 0.549073 *C 5.638 14.449
*N *2698:3 *C 6.201 14.424
*N *2698:4 *C 6.824 15.627
*N *2698:5 *C 6.824 14.742
*N *2698:6 *C 6.811 14.728
*N *2698:7 *C 6.216 14.728
*N *2698:8 *C 6.216 14.425
*N *2698:9 *C 6.216 14.411
*N *2698:10 *C 6.216 13.982

*CAP
0 *140:Y 0.001
1 *311:A3 0.001
2 *141:A1 0.03795331
3 *2698:3 0.03587791
4 *2698:4 0.04593184
5 *2698:5 0.04736452
6 *2698:6 0.02291687
7 *2698:7 0.03727296
8 *2698:8 0.009611653
9 *2698:9 0.0267739
10 *2698:10 0.02741662

*RES
0 *140:Y *2698:10 1
1 *2698:9 *2698:8 0.5
2 *2698:9 *2698:3 1
3 *2698:8 *2698:7 0.5410715
4 *2698:5 *2698:4 1.580357
5 *2698:6 *2698:5 0.5
6 *2698:4 *311:A3 1
7 *2698:10 *2698:9 0.7660715
8 *2698:3 *141:A1 1.126
9 *2698:7 *2698:6 1.061607

*END

*D_NET *2701 0.4761746 //LENGTH 4.829 LUMPCC 0 DR

*CONN
*I *207:Y O *L 0 *C 10.031 5.760
*I *208:A I *L 0.582888 *C 8.800 5.912
*I *504:A2 I *L 0.515513 *C 11.080 5.152
*I *504:A1 I *L 0.484201 *C 10.898 5.912
*N *2701:4 *C 10.776 5.912
*N *2701:5 *C 10.776 5.760
*N *2701:6 *C 11.080 5.166
*N *2701:7 *C 11.080 5.595
*N *2701:8 *C 11.067 5.608
*N *2701:9 *C 10.334 5.608
*N *2701:10 *C 10.320 5.608
*N *2701:11 *C 10.320 5.748
*N *2701:12 *C 10.320 5.760
*N *2701:13 *C 8.800 5.899
*N *2701:14 *C 8.800 5.622
*N *2701:15 *C 8.814 5.608
*N *2701:16 *C 10.003 5.608
*N *2701:17 *C 10.016 5.608
*N *2701:18 *C 10.016 5.748
*N *2701:19 *C 10.031 5.760

*CAP
0 *207:Y 0.001
1 *208:A 0.001
2 *504:A2 0.001
3 *504:A1 0.01276862
4 *2701:4 0.02420452
5 *2701:5 0.04336708
6 *2701:6 0.02770189
7 *2701:7 0.02913457
8 *2701:8 0.03655377
9 *2701:9 0.03655377
10 *2701:10 0.01257322
11 *2701:11 0.01287004
12 *2701:12 0.05672273
13 *2701:13 0.02033046
14 *2701:14 0.02176313
15 *2701:15 0.05118717
16 *2701:16 0.05118717
17 *2701:17 0.01115441
18 *2701:18 0.009721729
19 *2701:19 0.01538037

*RES
0 *207:Y *2701:19 0.001
1 *2701:12 *2701:11 1
2 *2701:12 *2701:5 0.9120001
3 *2701:11 *2701:10 0.2325
4 *2701:10 *2701:9 0.5
5 *2701:9 *2701:8 1.308929
6 *2701:7 *2701:6 0.7660714
7 *2701:8 *2701:7 0.5
8 *2701:6 *504:A2 1
9 *2701:13 *208:A 1
10 *2701:14 *2701:13 0.4946429
11 *2701:15 *2701:14 0.5
12 *2701:17 *2701:16 0.5
13 *2701:16 *2701:15 2.123214
14 *2701:18 *2701:17 0.2325
15 *2701:5 *2701:4 0.304
16 *2701:4 *504:A1 0.244
17 *2701:19 *2701:18 1
18 *2701:19 *2701:12 0.5786

*END

*D_NET *2704 0.6957192 //LENGTH 6.441 LUMPCC 0 DR

*CONN
*I *157:Y O *L 0 *C 5.456 37.680
*I *213:A I *L 0.582888 *C 5.456 36.008
*I *166:A1 I *L 0.484201 *C 6.216 36.008
*I *166:A2 I *L 0.515513 *C 6.475 35.248
*I *214:A4 I *L 0.514778 *C 8.344 35.856
*N *2704:5 *C 8.344 35.843
*N *2704:6 *C 8.344 35.704
*N *2704:7 *C 8.331 35.704
*N *2704:8 *C 6.520 35.248
*N *2704:9 *C 6.520 35.262
*N *2704:10 *C 6.520 35.691
*N *2704:11 *C 6.520 35.704
*N *2704:12 *C 6.216 35.995
*N *2704:13 *C 6.216 35.718
*N *2704:14 *C 6.216 35.704
*N *2704:15 *C 5.470 35.704
*N *2704:16 *C 5.456 35.718
*N *2704:17 *C 5.456 36.008
*N *2704:18 *C 5.456 37.666

*CAP
0 *157:Y 0.001
1 *213:A 0.001
2 *166:A1 0.001
3 *166:A2 0.01062174
4 *214:A4 0.001
5 *2704:5 0.01093908
6 *2704:6 0.01237176
7 *2704:7 0.09259803
8 *2704:8 0.008546343
9 *2704:9 0.03466525
10 *2704:10 0.03436843
11 *2704:11 0.1063137
12 *2704:12 0.02668295
13 *2704:13 0.02811563
14 *2704:14 0.04451044
15 *2704:15 0.03079477
16 *2704:16 0.02051207
17 *2704:17 0.1267816
18 *2704:18 0.1038973

*RES
0 *157:Y *2704:18 1
1 *2704:6 *2704:5 0.2325
2 *2704:7 *2704:6 0.5
3 *2704:5 *214:A4 1
4 *2704:10 *2704:9 0.7660714
5 *2704:11 *2704:10 0.5
6 *2704:11 *2704:7 3.233036
7 *2704:8 *166:A2 0.09166667
8 *2704:9 *2704:8 1
9 *2704:13 *2704:12 0.4946429
10 *2704:14 *2704:13 0.5
11 *2704:14 *2704:11 0.5428572
12 *2704:12 *166:A1 1
13 *2704:18 *2704:17 2.961607
14 *2704:17 *213:A 1
15 *2704:17 *2704:16 0.5187501
16 *2704:16 *2704:15 0.5
17 *2704:15 *2704:14 1.333036

*END

*D_NET *2707 0.7360052 //LENGTH 7.601 LUMPCC 0 DR

*CONN
*I *137:QN O *L 0 *C 13.664 37.984
*I *214:A3 I *L 0.539281 *C 8.648 35.704
*N *2707:2 *C 8.648 35.718
*N *2707:3 *C 8.648 36.299
*N *2707:4 *C 8.662 36.312
*N *2707:5 *C 13.651 36.312
*N *2707:6 *C 13.664 36.326
*N *2707:7 *C 13.664 37.983

*CAP
0 *137:QN 0.001
1 *214:A3 0.001
2 *2707:2 0.03631619
3 *2707:3 0.03774887
4 *2707:4 0.2478133
5 *2707:5 0.2478133
6 *2707:6 0.08287311
7 *2707:7 0.08144043

*RES
0 *137:QN *2707:7 1
1 *2707:2 *214:A3 1
2 *2707:3 *2707:2 1.0375
3 *2707:4 *2707:3 0.5
4 *2707:6 *2707:5 0.5
5 *2707:5 *2707:4 8.908929
6 *2707:7 *2707:6 2.959821

*END

*D_NET *2708 0.3643795 //LENGTH 3.345 LUMPCC 0 DR

*CONN
*I *136:QN O *L 0 *C 7.432 11.232
*I *212:A2 I *L 0.537813 *C 8.496 9.256
*N *2708:2 *C 8.496 9.270
*N *2708:3 *C 8.496 9.851
*N *2708:4 *C 8.482 9.864
*N *2708:5 *C 7.446 9.864
*N *2708:6 *C 7.432 9.878
*N *2708:7 *C 7.432 11.231

*CAP
0 *136:QN 0.001
1 *212:A2 0.001
2 *2708:2 0.03802455
3 *2708:3 0.03945723
4 *2708:4 0.0471819
5 *2708:5 0.0471819
6 *2708:6 0.09598328
7 *2708:7 0.0945506

*RES
0 *136:QN *2708:7 1
1 *2708:2 *212:A2 1
2 *2708:3 *2708:2 1.0375
3 *2708:4 *2708:3 0.5
4 *2708:6 *2708:5 0.5
5 *2708:5 *2708:4 1.851786
6 *2708:7 *2708:6 2.416964

*END

*D_NET *2710 1.408138 //LENGTH 13.532 LUMPCC 0 DR

*CONN
*I *235:Q O *L 0 *C 9.256 31.144
*I *166:A3 I *L 0.539281 *C 6.824 35.704
*I *157:A1 I *L 0.549073 *C 5.638 37.857
*I *159:A3 I *L 0.584801 *C 8.192 37.680
*N *2710:4 *C 8.192 37.694
*N *2710:5 *C 8.192 37.832
*N *2710:6 *C 6.216 37.650
*N *2710:7 *C 6.201 37.832
*N *2710:8 *C 6.216 37.820
*N *2710:9 *C 6.230 37.832
*N *2710:10 *C 7.875 37.832
*N *2710:11 *C 7.888 37.832
*N *2710:12 *C 6.824 35.718
*N *2710:13 *C 6.824 36.299
*N *2710:14 *C 6.838 36.312
*N *2710:15 *C 7.875 36.312
*N *2710:16 *C 7.888 36.312
*N *2710:17 *C 7.888 32.373
*N *2710:18 *C 7.902 32.360
*N *2710:19 *C 9.242 32.360
*N *2710:20 *C 9.256 32.346
*N *2710:21 *C 9.256 31.158

*CAP
0 *235:Q 0.001
1 *166:A3 0.001
2 *157:A1 0.03804053
3 *159:A3 0.001
4 *2710:4 0.0116746
5 *2710:5 0.02941494
6 *2710:6 0.02107214
7 *2710:7 0.03596513
8 *2710:8 0.01662452
9 *2710:9 0.06429002
10 *2710:10 0.06429002
11 *2710:11 0.1242988
12 *2710:12 0.03762773
13 *2710:13 0.03906041
14 *2710:14 0.05609322
15 *2710:15 0.05609322
16 *2710:16 0.3352272
17 *2710:17 0.2224916
18 *2710:18 0.06124961
19 *2710:19 0.06124961
20 *2710:20 0.06590391
21 *2710:21 0.06447123

*RES
0 *235:Q *2710:21 1
1 *2710:4 *159:A3 1
2 *2710:17 *2710:16 7.033036
3 *2710:18 *2710:17 0.5
4 *2710:20 *2710:19 0.5
5 *2710:19 *2710:18 2.394643
6 *2710:21 *2710:20 2.123214
7 *2710:16 *2710:15 0.5
8 *2710:16 *2710:11 2.714286
9 *2710:15 *2710:14 1.851786
10 *2710:13 *2710:12 1.0375
11 *2710:14 *2710:13 0.5
12 *2710:12 *166:A3 1
13 *2710:11 *2710:10 0.5
14 *2710:11 *2710:5 0.5428572
15 *2710:10 *2710:9 2.9375
16 *2710:8 *2710:7 1
17 *2710:8 *2710:6 0.2825
18 *2710:9 *2710:8 0.5
19 *2710:7 *157:A1 1.126
20 *2710:5 *2710:4 0.2473214

*END

*D_NET *2714 0.8956481 //LENGTH 8.595 LUMPCC 0 DR

*CONN
*I *233:Q O *L 0 *C 13.208 27.800
*I *149:A2 I *L 0.466516 *C 7.278 26.004
*I *87:A4 I *L 0.514778 *C 7.432 27.648
*N *2714:3 *C 7.432 27.635
*N *2714:4 *C 7.420 25.976
*N *2714:5 *C 7.432 25.989
*N *2714:6 *C 7.432 27.192
*N *2714:7 *C 7.446 27.192
*N *2714:8 *C 13.195 27.192
*N *2714:9 *C 13.208 27.206
*N *2714:10 *C 13.208 27.787

*CAP
0 *233:Q 0.001
1 *149:A2 0.01334428
2 *87:A4 0.001
3 *2714:3 0.0234799
4 *2714:4 0.01126888
5 *2714:5 0.06782907
6 *2714:6 0.09481705
7 *2714:7 0.3140637
8 *2714:8 0.3140637
9 *2714:9 0.02810708
10 *2714:10 0.0266744

*RES
0 *233:Q *2714:10 1
1 *2714:3 *87:A4 1
2 *2714:6 *2714:5 2.147322
3 *2714:6 *2714:3 0.7901788
4 *2714:7 *2714:6 0.5
5 *2714:9 *2714:8 0.5
6 *2714:8 *2714:7 10.26607
7 *2714:10 *2714:9 1.0375
8 *2714:4 *149:A2 0.2366667
9 *2714:5 *2714:4 1

*END

*D_NET *2718 0.5472648 //LENGTH 6.044 LUMPCC 0 DR

*CONN
*I *231:Q O *L 0 *C 7.584 17.768
*I *311:A4 I *L 0.514778 *C 6.520 15.792
*I *141:A2 I *L 0.466516 *C 5.760 14.120
*N *2718:3 *C 5.760 14.121
*N *2718:4 *C 5.760 15.627
*N *2718:5 *C 5.774 15.640
*N *2718:6 *C 6.520 15.780
*N *2718:7 *C 6.520 15.640
*N *2718:8 *C 6.520 15.640
*N *2718:9 *C 7.571 15.640
*N *2718:10 *C 7.584 15.654
*N *2718:11 *C 7.584 17.755

*CAP
0 *231:Q 0.001
1 *311:A4 0.001
2 *141:A2 0.001
3 *2718:3 0.08944777
4 *2718:4 0.0907075
5 *2718:5 0.0290457
6 *2718:6 0.01025493
7 *2718:7 0.01168761
8 *2718:8 0.07048812
9 *2718:9 0.0390702
10 *2718:10 0.1024978
11 *2718:11 0.1010651

*RES
0 *231:Q *2718:11 1
1 *2718:10 *2718:9 0.5
2 *2718:9 *2718:8 1.875893
3 *2718:11 *2718:10 3.751786
4 *2718:7 *2718:6 0.2325
5 *2718:8 *2718:7 0.5
6 *2718:8 *2718:5 1.333036
7 *2718:6 *311:A4 1
8 *2718:4 *2718:3 2.688393
9 *2718:5 *2718:4 0.5
10 *2718:3 *141:A2 1

*END

*D_NET *2722 1.30743 //LENGTH 12.106 LUMPCC 0 DR

*CONN
*I *136:Q O *L 0 *C 7.584 11.080
*I *139:A2 I *L 0.578798 *C 10.472 9.256
*I *207:A2 I *L 0.466516 *C 10.318 5.940
*I *504:A4 I *L 0.514778 *C 11.232 5.760
*I *203:A2 I *L 0.55521 *C 11.536 9.104
*N *2722:5 *C 11.536 9.117
*N *2722:6 *C 11.536 9.560
*N *2722:7 *C 11.232 5.774
*N *2722:8 *C 10.460 5.912
*N *2722:9 *C 10.472 5.926
*N *2722:10 *C 10.472 6.203
*N *2722:11 *C 10.486 6.216
*N *2722:12 *C 11.219 6.216
*N *2722:13 *C 11.232 6.216
*N *2722:14 *C 11.232 9.560
*N *2722:15 *C 11.219 9.560
*N *2722:16 *C 10.472 9.270
*N *2722:17 *C 10.472 9.546
*N *2722:18 *C 10.472 9.560
*N *2722:19 *C 7.598 9.560
*N *2722:20 *C 7.584 9.574
*N *2722:21 *C 7.584 11.067

*CAP
0 *136:Q 0.001
1 *139:A2 0.001
2 *207:A2 0.01794543
3 *504:A4 0.001
4 *203:A2 0.001
5 *2722:5 0.03037914
6 *2722:6 0.04937223
7 *2722:7 0.03012948
8 *2722:8 0.01587003
9 *2722:9 0.01885454
10 *2722:10 0.01855772
11 *2722:11 0.04134487
12 *2722:12 0.04134487
13 *2722:13 0.2368301
14 *2722:14 0.2180839
15 *2722:15 0.03665641
16 *2722:16 0.02582873
17 *2722:17 0.0272614
18 *2722:18 0.1734409
19 *2722:19 0.1344123
20 *2722:20 0.09427536
21 *2722:21 0.09284268

*RES
0 *136:Q *2722:21 1
1 *2722:5 *203:A2 1
2 *2722:7 *504:A4 1
3 *2722:14 *2722:13 5.971429
4 *2722:14 *2722:6 0.5428572
5 *2722:15 *2722:14 0.5
6 *2722:17 *2722:16 0.4946429
7 *2722:18 *2722:17 0.5
8 *2722:18 *2722:15 1.333036
9 *2722:16 *139:A2 1
10 *2722:13 *2722:12 0.5
11 *2722:13 *2722:7 0.7901786
12 *2722:12 *2722:11 1.308929
13 *2722:10 *2722:9 0.4946429
14 *2722:11 *2722:10 0.5
15 *2722:8 *207:A2 0.2366667
16 *2722:9 *2722:8 1
17 *2722:20 *2722:19 0.5
18 *2722:19 *2722:18 5.133036
19 *2722:21 *2722:20 2.666071
20 *2722:6 *2722:5 0.7901786

*END

*D_NET *2727 0.5561961 //LENGTH 5.959 LUMPCC 0 DR

*CONN
*I *236:Y O *L 0 *C 28.712 41.328
*I *241:D I *L 0.543562 *C 32.208 39.504
*N *2727:2 *C 32.208 39.492
*N *2727:3 *C 32.208 39.352
*N *2727:4 *C 32.195 39.352
*N *2727:5 *C 28.726 39.352
*N *2727:6 *C 28.712 39.366
*N *2727:7 *C 28.712 41.315

*CAP
0 *236:Y 0.001
1 *241:D 0.001
2 *2727:2 0.008530234
3 *2727:3 0.009962913
4 *2727:4 0.1606143
5 *2727:5 0.1606143
6 *2727:6 0.1079535
7 *2727:7 0.1065208

*RES
0 *236:Y *2727:7 1
1 *2727:2 *241:D 1
2 *2727:3 *2727:2 0.2325
3 *2727:4 *2727:3 0.5
4 *2727:6 *2727:5 0.5
5 *2727:5 *2727:4 6.194643
6 *2727:7 *2727:6 3.480358

*END

*D_NET *2730 1.158243 //LENGTH 11.401 LUMPCC 0 DR

*CONN
*I *321:Y O *L 0 *C 42.240 11.232
*I *247:D I *L 0.543562 *C 33.880 13.968
*N *2730:2 *C 33.880 13.955
*N *2730:3 *C 33.880 12.309
*N *2730:4 *C 33.894 12.296
*N *2730:5 *C 42.227 12.296
*N *2730:6 *C 42.240 12.283
*N *2730:7 *C 42.240 11.233

*CAP
0 *321:Y 0.001
1 *247:D 0.001
2 *2730:2 0.09381674
3 *2730:3 0.09524942
4 *2730:4 0.4237339
5 *2730:5 0.4237339
6 *2730:6 0.06057101
7 *2730:7 0.05913834

*RES
0 *321:Y *2730:7 1
1 *2730:2 *247:D 1
2 *2730:3 *2730:2 2.9375
3 *2730:4 *2730:3 0.5
4 *2730:6 *2730:5 0.5
5 *2730:5 *2730:4 14.88036
6 *2730:7 *2730:6 1.874107

*END

*D_NET *2735 0.5012382 //LENGTH 5.204 LUMPCC 0 DR

*CONN
*I *281:Y O *L 0 *C 31.752 30.992
*I *238:D I *L 0.543562 *C 27.192 30.688
*N *2735:2 *C 27.192 30.688
*N *2735:3 *C 27.192 30.828
*N *2735:4 *C 27.206 30.840
*N *2735:5 *C 31.739 30.840
*N *2735:6 *C 31.752 30.840
*N *2735:7 *C 31.752 30.980

*CAP
0 *281:Y 0.001
1 *238:D 0.001
2 *2735:2 0.01268892
3 *2735:3 0.0141216
4 *2735:4 0.2242382
5 *2735:5 0.2242382
6 *2735:6 0.01269196
7 *2735:7 0.01125928

*RES
0 *281:Y *2735:7 1
1 *2735:2 *238:D 1
2 *2735:3 *2735:2 0.2325
3 *2735:4 *2735:3 0.5
4 *2735:6 *2735:5 0.5
5 *2735:5 *2735:4 8.094644
6 *2735:7 *2735:6 0.2325001

*END

*D_NET *2739 0.4863494 //LENGTH 5.230 LUMPCC 0 DR

*CONN
*I *255:Y O *L 0 *C 40.112 18.528
*I *256:A3 I *L 0.584801 *C 43.760 17.616
*N *2739:2 *C 43.760 17.604
*N *2739:3 *C 43.760 17.464
*N *2739:4 *C 43.747 17.464
*N *2739:5 *C 40.733 17.464
*N *2739:6 *C 40.720 17.477
*N *2739:7 *C 40.720 18.528
*N *2739:8 *C 40.113 18.528

*CAP
0 *255:Y 0.001
1 *256:A3 0.001
2 *2739:2 0.01455189
3 *2739:3 0.01598457
4 *2739:4 0.1382668
5 *2739:5 0.1382668
6 *2739:6 0.0605977
7 *2739:7 0.09139197
8 *2739:8 0.02528973

*RES
0 *255:Y *2739:8 1
1 *2739:2 *256:A3 1
2 *2739:3 *2739:2 0.2325
3 *2739:4 *2739:3 0.5
4 *2739:6 *2739:5 0.5
5 *2739:5 *2739:4 5.380358
6 *2739:8 *2739:7 1.083929
7 *2739:7 *2739:6 1.875893

*END

*D_NET *2743 2.272824 //LENGTH 27.862 LUMPCC 0 DR

*CONN
*I *262:Y O *L 0 *C 36.160 41.024
*I *263:A2 I *L 0.466516 *C 44.067 27.524
*I *266:A1 I *L 0.582918 *C 45.279 24.152
*N *2743:3 *C 43.730 27.496
*N *2743:4 *C 45.218 24.152
*N *2743:5 *C 45.218 24.152
*N *2743:6 *C 45.280 25.355
*N *2743:7 *C 45.267 25.368
*N *2743:8 *C 43.925 25.368
*N *2743:9 *C 43.912 25.382
*N *2743:10 *C 43.925 27.496
*N *2743:11 *C 43.912 27.483
*N *2743:12 *C 43.900 27.496
*N *2743:13 *C 43.912 27.510
*N *2743:14 *C 43.912 35.387
*N *2743:15 *C 43.899 35.400
*N *2743:16 *C 36.022 35.400
*N *2743:17 *C 36.008 35.413
*N *2743:18 *C 36.008 40.555
*N *2743:19 *C 36.008 40.568
*N *2743:20 *C 36.148 40.568
*N *2743:21 *C 36.160 40.582
*N *2743:22 *C 36.160 41.011

*CAP
0 *262:Y 0.001
1 *263:A2 0.01645971
2 *266:A1 0.01814026
3 *2743:3 0.01375082
4 *2743:4 0.01191406
5 *2743:5 0.08266007
6 *2743:6 0.06705641
7 *2743:7 0.05566327
8 *2743:8 0.05566327
9 *2743:9 0.1302862
10 *2743:10 0.01438431
11 *2743:11 0.1282109
12 *2743:12 0.009006932
13 *2743:13 0.3046645
14 *2743:14 0.304665
15 *2743:15 0.2779624
16 *2743:16 0.2779624
17 *2743:17 0.2045556
18 *2743:18 0.2045551
19 *2743:19 0.008460629
20 *2743:20 0.008460083
21 *2743:21 0.03938754
22 *2743:22 0.03795486

*RES
0 *262:Y *2743:22 1
1 *2743:10 *263:A2 0.2366667
2 *2743:11 *2743:10 1
3 *2743:11 *2743:9 3.751786
4 *2743:9 *2743:8 0.5
5 *2743:8 *2743:7 2.394643
6 *2743:6 *2743:5 2.147322
7 *2743:7 *2743:6 0.5
8 *2743:4 *266:A1 0.1916667
9 *2743:5 *2743:4 0.5
10 *2743:12 *2743:11 0.5
11 *2743:12 *2743:3 0.2825
12 *2743:13 *2743:12 0.5
13 *2743:14 *2743:13 14.06607
14 *2743:15 *2743:14 0.5
15 *2743:17 *2743:16 0.5
16 *2743:16 *2743:15 14.06607
17 *2743:19 *2743:18 0.5
18 *2743:18 *2743:17 9.180358
19 *2743:21 *2743:20 0.5
20 *2743:20 *2743:19 0.2325
21 *2743:22 *2743:21 0.7660714

*END

*D_NET *2749 0.4044926 //LENGTH 3.953 LUMPCC 0 DR

*CONN
*I *279:Y O *L 0 *C 33.424 32.968
*I *281:A1 I *L 0.549073 *C 31.600 31.144
*N *2749:2 *C 31.600 31.145
*N *2749:3 *C 31.600 32.043
*N *2749:4 *C 31.614 32.056
*N *2749:5 *C 33.410 32.056
*N *2749:6 *C 33.424 32.070
*N *2749:7 *C 33.424 32.955

*CAP
0 *279:Y 0.001
1 *281:A1 0.001
2 *2749:2 0.05052318
3 *2749:3 0.05195586
4 *2749:4 0.08814886
5 *2749:5 0.08814886
6 *2749:6 0.06257425
7 *2749:7 0.06114157

*RES
0 *279:Y *2749:7 1
1 *2749:2 *281:A1 1
2 *2749:3 *2749:2 1.602679
3 *2749:4 *2749:3 0.5
4 *2749:6 *2749:5 0.5
5 *2749:5 *2749:4 3.208929
6 *2749:7 *2749:6 1.580357

*END

*D_NET *2753 1.120067 //LENGTH 8.967 LUMPCC 0 DR

*CONN
*I *278:Y O *L 0 *C 32.248 36.008
*I *279:A6 I *L 0.639573 *C 32.816 32.208
*I *284:A4 I *L 0.552216 *C 33.851 29.158
*N *2753:3 *C 33.880 29.168
*N *2753:4 *C 33.880 29.181
*N *2753:5 *C 33.880 31.739
*N *2753:6 *C 33.867 31.752
*N *2753:7 *C 32.830 31.752
*N *2753:8 *C 32.816 31.766
*N *2753:9 *C 32.816 32.208
*N *2753:10 *C 32.816 35.995
*N *2753:11 *C 32.801 36.008

*CAP
0 *278:Y 0.0373015
1 *279:A6 0.001
2 *284:A4 0.009281212
3 *2753:3 0.007205813
4 *2753:4 0.1746794
5 *2753:5 0.1743826
6 *2753:6 0.04729232
7 *2753:7 0.04729232
8 *2753:8 0.03286009
9 *2753:9 0.2935241
10 *2753:10 0.2600213
11 *2753:11 0.03522611

*RES
0 *278:Y *2753:11 1.106
1 *2753:9 *279:A6 1
2 *2753:9 *2753:8 0.7901787
3 *2753:8 *2753:7 0.5
4 *2753:7 *2753:6 1.851786
5 *2753:5 *2753:4 4.566072
6 *2753:6 *2753:5 0.5
7 *2753:3 *284:A4 0.09166667
8 *2753:4 *2753:3 1
9 *2753:11 *2753:10 1
10 *2753:10 *2753:9 6.761608

*END

*D_NET *2757 0.5352979 //LENGTH 6.313 LUMPCC 0 DR

*CONN
*I *270:Y O *L 0 *C 43.456 24.304
*I *206:A5 I *L 0.532504 *C 44.824 22.784
*I *290:A2 I *L 0.537813 *C 47.408 24.152
*N *2757:3 *C 47.408 23.970
*N *2757:4 *C 47.408 24.140
*N *2757:5 *C 47.395 24.152
*N *2757:6 *C 44.824 22.797
*N *2757:7 *C 44.824 22.936
*N *2757:8 *C 44.672 22.936
*N *2757:9 *C 44.672 24.139
*N *2757:10 *C 44.672 24.152
*N *2757:11 *C 43.470 24.152
*N *2757:12 *C 43.456 24.152
*N *2757:13 *C 43.456 24.292

*CAP
0 *270:Y 0.001
1 *206:A5 0.001
2 *290:A2 0.001
3 *2757:3 0.01447154
4 *2757:4 0.008294428
5 *2757:5 0.09764773
6 *2757:6 0.01409649
7 *2757:7 0.02680706
8 *2757:8 0.08296817
9 *2757:9 0.07169028
10 *2757:10 0.1481216
11 *2757:11 0.0481017
12 *2757:12 0.01076576
13 *2757:13 0.009333085

*RES
0 *270:Y *2757:13 1
1 *2757:4 *290:A2 1
2 *2757:4 *2757:3 0.2825
3 *2757:5 *2757:4 0.5
4 *2757:9 *2757:8 2.147322
5 *2757:10 *2757:9 0.5
6 *2757:10 *2757:5 4.861607
7 *2757:6 *206:A5 1
8 *2757:12 *2757:11 0.5
9 *2757:11 *2757:10 2.147322
10 *2757:13 *2757:12 0.2325
11 *2757:8 *2757:7 0.2714286
12 *2757:7 *2757:6 0.2473215

*END

*D_NET *2761 0.3694226 //LENGTH 3.631 LUMPCC 0 DR

*CONN
*I *288:Y O *L 0 *C 42.210 19.136
*I *293:A1 I *L 0.610599 *C 40.416 20.808
*N *2761:2 *C 40.416 20.794
*N *2761:3 *C 40.416 19.149
*N *2761:4 *C 40.431 19.136

*CAP
0 *288:Y 0.1004709
1 *293:A1 0.001
2 *2761:2 0.08391335
3 *2761:3 0.08564284
4 *2761:4 0.09839549

*RES
0 *288:Y *2761:4 3.558
1 *2761:2 *293:A1 1
2 *2761:4 *2761:3 1
3 *2761:3 *2761:2 2.9375

*END

*D_NET *2764 1.095692 //LENGTH 10.967 LUMPCC 0 DR

*CONN
*I *266:Y O *L 0 *C 46.344 23.848
*I *268:A1 I *L 0.549073 *C 44.523 21.140
*I *296:A1 I *L 0.666174 *C 45.736 17.616
*I *298:A1 I *L 0.545966 *C 46.800 17.505
*N *2764:4 *C 46.800 17.616
*N *2764:5 *C 46.207 17.616
*N *2764:6 *C 46.192 17.630
*N *2764:7 *C 46.192 17.920
*N *2764:8 *C 45.736 17.617
*N *2764:9 *C 45.736 17.920
*N *2764:10 *C 46.040 17.920
*N *2764:11 *C 46.040 21.416
*N *2764:12 *C 44.660 21.112
*N *2764:13 *C 44.672 21.126
*N *2764:14 *C 44.672 21.402
*N *2764:15 *C 44.686 21.416
*N *2764:16 *C 46.331 21.416
*N *2764:17 *C 46.344 21.430
*N *2764:18 *C 46.344 23.835

*CAP
0 *266:Y 0.001
1 *268:A1 0.01412786
2 *296:A1 0.001
3 *298:A1 0.01146983
4 *2764:4 0.05736319
5 *2764:5 0.04381796
6 *2764:6 0.02371126
7 *2764:7 0.03338552
8 *2764:8 0.01308939
9 *2764:9 0.03090997
10 *2764:10 0.2216174
11 *2764:11 0.2146223
12 *2764:12 0.01205246
13 *2764:13 0.01921785
14 *2764:14 0.01892103
15 *2764:15 0.06726003
16 *2764:16 0.06726003
17 *2764:17 0.1304587
18 *2764:18 0.1144066

*RES
0 *266:Y *2764:18 1
1 *2764:18 *2764:17 4.294643
2 *2764:5 *2764:4 1.186
3 *2764:6 *2764:5 1
4 *2764:8 *296:A1 1
5 *2764:17 *2764:16 0.5
6 *2764:17 *2764:11 0.5428572
7 *2764:16 *2764:15 2.9375
8 *2764:14 *2764:13 0.4946429
9 *2764:15 *2764:14 0.5
10 *2764:12 *268:A1 0.2283333
11 *2764:13 *2764:12 1
12 *2764:4 *298:A1 0.272
13 *2764:9 *2764:8 0.5410715
14 *2764:10 *2764:9 0.5428572
15 *2764:10 *2764:7 0.2714286
16 *2764:7 *2764:6 0.51875
17 *2764:11 *2764:10 6.242857

*END

*D_NET *2768 0.4037043 //LENGTH 4.262 LUMPCC 0 DR

*CONN
*I *300:Y O *L 0 *C 46.787 12.818
*I *301:A3 I *L 0.532459 *C 43.152 13.208
*N *2768:2 *C 46.648 12.722
*N *2768:3 *C 43.152 13.195
*N *2768:4 *C 43.152 12.918
*N *2768:5 *C 43.166 12.904
*N *2768:6 *C 46.635 12.904
*N *2768:7 *C 46.648 12.892

*CAP
0 *300:Y 0.001
1 *301:A3 0.001
2 *2768:2 0.01579334
3 *2768:3 0.01781507
4 *2768:4 0.01924775
5 *2768:5 0.1695861
6 *2768:6 0.1695861
7 *2768:7 0.009675945

*RES
0 *300:Y *2768:7 1
1 *2768:3 *301:A3 1
2 *2768:4 *2768:3 0.4946429
3 *2768:5 *2768:4 0.5
4 *2768:7 *2768:6 0.5
5 *2768:7 *2768:2 0.2825
6 *2768:6 *2768:5 6.194643

*END

*D_NET *2772 0.9889919 //LENGTH 11.077 LUMPCC 0 DR

*CONN
*I *302:Y O *L 0 *C 45.280 15.488
*I *507:A3 I *L 0.539281 *C 44.064 11.080
*I *321:A1 I *L 0.514394 *C 40.840 10.928
*I *507:A1 I *L 0.484201 *C 44.672 10.776
*N *2772:4 *C 44.672 10.790
*N *2772:5 *C 44.672 11.067
*N *2772:6 *C 44.660 11.080
*N *2772:7 *C 40.583 10.928
*N *2772:8 *C 40.568 10.928
*N *2772:9 *C 40.568 11.068
*N *2772:10 *C 40.582 11.080
*N *2772:11 *C 44.064 10.898
*N *2772:12 *C 44.064 11.068
*N *2772:13 *C 44.064 11.080
*N *2772:14 *C 44.532 11.080
*N *2772:15 *C 44.520 11.094
*N *2772:16 *C 44.520 15.323
*N *2772:17 *C 44.534 15.336
*N *2772:18 *C 45.267 15.336
*N *2772:19 *C 45.280 15.336
*N *2772:20 *C 45.280 15.476

*CAP
0 *302:Y 0.001
1 *507:A3 0.001
2 *321:A1 0.02410875
3 *507:A1 0.001
4 *2772:4 0.01745589
5 *2772:5 0.01888857
6 *2772:6 0.009426809
7 *2772:7 0.02203335
8 *2772:8 0.01005851
9 *2772:9 0.009761686
10 *2772:10 0.1647601
11 *2772:11 0.01621778
12 *2772:12 0.01004066
13 *2772:13 0.1875241
14 *2772:14 0.03219137
15 *2772:15 0.1820762
16 *2772:16 0.1820762
17 *2772:17 0.03752283
18 *2772:18 0.03752229
19 *2772:19 0.01287976
20 *2772:20 0.01144708

*RES
0 *302:Y *2772:20 1
1 *2772:5 *2772:4 0.4946429
2 *2772:6 *2772:5 0.5
3 *2772:4 *507:A1 1
4 *2772:14 *2772:13 0.8366072
5 *2772:14 *2772:6 0.2116667
6 *2772:15 *2772:14 0.5
7 *2772:17 *2772:16 0.5
8 *2772:16 *2772:15 7.551786
9 *2772:19 *2772:18 0.5
10 *2772:18 *2772:17 1.308929
11 *2772:20 *2772:19 0.2325
12 *2772:12 *507:A3 1
13 *2772:12 *2772:11 0.2825
14 *2772:13 *2772:12 0.5
15 *2772:13 *2772:10 6.21875
16 *2772:9 *2772:8 0.2325
17 *2772:10 *2772:9 0.5
18 *2772:7 *321:A1 0.5140001
19 *2772:8 *2772:7 1

*END

*D_NET *2776 0.4134105 //LENGTH 4.105 LUMPCC 0 DR

*CONN
*I *317:Y O *L 0 *C 23.696 42.544
*I *318:A2 I *L 0.466516 *C 25.824 44.216
*N *2776:2 *C 25.824 44.215
*N *2776:3 *C 25.824 43.014
*N *2776:4 *C 25.811 43.000
*N *2776:5 *C 23.710 43.000
*N *2776:6 *C 23.696 42.986
*N *2776:7 *C 23.696 42.558

*CAP
0 *317:Y 0.001
1 *318:A2 0.001
2 *2776:2 0.07930466
3 *2776:3 0.08056439
4 *2776:4 0.09704995
5 *2776:5 0.09704995
6 *2776:6 0.02943713
7 *2776:7 0.02800445

*RES
0 *317:Y *2776:7 1
1 *2776:2 *318:A2 1
2 *2776:3 *2776:2 2.145536
3 *2776:4 *2776:3 0.5
4 *2776:6 *2776:5 0.5
5 *2776:5 *2776:4 3.751786
6 *2776:7 *2776:6 0.7660714

*END

*D_NET *2779 1.06033 //LENGTH 10.309 LUMPCC 0 DR

*CONN
*I *259:Y O *L 0 *C 35.248 40.720
*I *261:A2 I *L 0.509119 *C 33.424 42.392
*I *313:A1 I *L 0.526794 *C 31.600 44.368
*I *319:A1 I *L 0.529859 *C 32.208 41.176
*N *2779:4 *C 32.208 41.163
*N *2779:5 *C 32.208 40.886
*N *2779:6 *C 32.221 40.872
*N *2779:7 *C 31.600 44.355
*N *2779:8 *C 31.600 43.925
*N *2779:9 *C 31.614 43.912
*N *2779:10 *C 32.803 43.912
*N *2779:11 *C 32.816 43.899
*N *2779:12 *C 33.424 42.406
*N *2779:13 *C 33.424 42.986
*N *2779:14 *C 33.410 43.000
*N *2779:15 *C 32.830 43.000
*N *2779:16 *C 32.816 43.000
*N *2779:17 *C 32.816 40.886
*N *2779:18 *C 32.816 40.872
*N *2779:19 *C 35.235 40.872
*N *2779:20 *C 35.248 40.860
*N *2779:21 *C 35.248 40.720

*CAP
0 *259:Y 0.001
1 *261:A2 0.001
2 *313:A1 0.001
3 *319:A1 0.001
4 *2779:4 0.0174736
5 *2779:5 0.01890627
6 *2779:6 0.02834185
7 *2779:7 0.02523826
8 *2779:8 0.02667094
9 *2779:9 0.05043362
10 *2779:10 0.05043362
11 *2779:11 0.06180314
12 *2779:12 0.04293367
13 *2779:13 0.04436634
14 *2779:14 0.03241111
15 *2779:15 0.03241111
16 *2779:16 0.212034
17 *2779:17 0.1478586
18 *2779:18 0.136028
19 *2779:19 0.1053139
20 *2779:20 0.0125523
21 *2779:21 0.01111962

*RES
0 *259:Y *2779:21 1
1 *2779:20 *2779:19 0.5
2 *2779:19 *2779:18 4.31875
3 *2779:21 *2779:20 0.2325
4 *2779:16 *2779:15 0.5
5 *2779:16 *2779:11 1.604464
6 *2779:15 *2779:14 1.0375
7 *2779:13 *2779:12 1.0375
8 *2779:14 *2779:13 0.5
9 *2779:12 *261:A2 1
10 *2779:17 *2779:16 3.775893
11 *2779:18 *2779:17 0.5
12 *2779:18 *2779:6 1.061607
13 *2779:5 *2779:4 0.4946429
14 *2779:6 *2779:5 0.5
15 *2779:4 *319:A1 1
16 *2779:11 *2779:10 0.5
17 *2779:10 *2779:9 2.123214
18 *2779:8 *2779:7 0.7660715
19 *2779:9 *2779:8 0.5
20 *2779:7 *313:A1 1

*END

*D_NET *2784 1.262592 //LENGTH 13.199 LUMPCC 0 DR

*CONN
*I *315:Y O *L 0 *C 34.792 43.152
*I *210:A4 I *L 0.529682 *C 30.840 42.392
*I *316:A4 I *L 0.569168 *C 29.472 44.064
*I *322:A3 I *L 0.539281 *C 29.624 45.736
*I *322:A1 I *L 0.484201 *C 29.016 46.040
*I *326:A2 I *L 0.54421 *C 27.952 45.280
*N *2784:6 *C 27.952 45.280
*N *2784:7 *C 27.952 45.419
*N *2784:8 *C 27.966 45.432
*N *2784:9 *C 29.016 45.432
*N *2784:10 *C 29.016 46.027
*N *2784:11 *C 29.016 45.750
*N *2784:12 *C 29.016 45.736
*N *2784:13 *C 29.611 45.736
*N *2784:14 *C 29.623 45.736
*N *2784:15 *C 29.472 45.736
*N *2784:16 *C 29.472 44.064
*N *2784:17 *C 29.472 43.912
*N *2784:18 *C 29.624 43.912
*N *2784:19 *C 29.624 42.406
*N *2784:20 *C 29.638 42.392
*N *2784:21 *C 30.840 42.210
*N *2784:22 *C 30.840 42.380
*N *2784:23 *C 30.840 42.392
*N *2784:24 *C 34.779 42.392
*N *2784:25 *C 34.792 42.406
*N *2784:26 *C 34.792 43.139

*CAP
0 *315:Y 0.001
1 *210:A4 0.001
2 *316:A4 0.001
3 *322:A3 0.001
4 *322:A1 0.001
5 *326:A2 0.001
6 *2784:6 0.01266028
7 *2784:7 0.01409296
8 *2784:8 0.04491678
9 *2784:9 0.05953845
10 *2784:10 0.01803689
11 *2784:11 0.01946956
12 *2784:12 0.04178898
13 *2784:13 0.02953952
14 *2784:14 0.003036213
15 *2784:15 0.1130696
16 *2784:16 0.1114375
17 *2784:17 0.02052459
18 *2784:18 0.1055116
19 *2784:19 0.09400082
20 *2784:20 0.04970083
21 *2784:21 0.02281498
22 *2784:22 0.01663787
23 *2784:23 0.2307659
24 *2784:24 0.1786928
25 *2784:25 0.0358942
26 *2784:26 0.03446152

*RES
0 *315:Y *2784:26 1
1 *2784:25 *2784:24 0.5
2 *2784:24 *2784:23 7.033036
3 *2784:26 *2784:25 1.308929
4 *2784:22 *210:A4 1
5 *2784:22 *2784:21 0.2825
6 *2784:23 *2784:22 0.5
7 *2784:23 *2784:20 2.147322
8 *2784:14 *322:A3 1
9 *2784:14 *2784:13 0.5
10 *2784:19 *2784:18 2.690179
11 *2784:20 *2784:19 0.5
12 *2784:16 *316:A4 1
13 *2784:16 *2784:15 2.985714
14 *2784:13 *2784:12 1.061607
15 *2784:11 *2784:10 0.4946429
16 *2784:12 *2784:11 0.5
17 *2784:12 *2784:9 0.5428572
18 *2784:10 *322:A1 1
19 *2784:7 *2784:6 0.2325
20 *2784:8 *2784:7 0.5
21 *2784:6 *326:A2 1
22 *2784:17 *2784:16 0.2714286
23 *2784:18 *2784:17 0.2714286
24 *2784:15 *2784:14 0.2696429
25 *2784:9 *2784:8 1.875893

*END

*D_NET *2789 0.8508838 //LENGTH 8.273 LUMPCC 0 DR

*CONN
*I *268:Y O *L 0 *C 44.368 20.960
*I *292:A4 I *L 0.554348 *C 42.696 21.112
*I *291:A2 I *L 0.570549 *C 42.696 21.872
*I *269:A I *L 0.582888 *C 40.416 22.632
*I *328:A2 I *L 0.52073 *C 40.645 24.000
*N *2789:5 *C 40.431 24.000
*N *2789:6 *C 40.416 23.986
*N *2789:7 *C 40.416 22.646
*N *2789:8 *C 40.430 22.632
*N *2789:9 *C 42.683 22.632
*N *2789:10 *C 42.696 22.619
*N *2789:11 *C 42.696 21.886
*N *2789:12 *C 42.696 21.707
*N *2789:13 *C 42.696 21.126
*N *2789:14 *C 42.696 21.416
*N *2789:15 *C 42.710 21.416
*N *2789:16 *C 44.355 21.416
*N *2789:17 *C 44.368 21.402
*N *2789:18 *C 44.368 20.974

*CAP
0 *268:Y 0.001
1 *292:A4 0.001
2 *291:A2 0.001
3 *269:A 0.001
4 *328:A2 0.02015143
5 *2789:5 0.01807604
6 *2789:6 0.100325
7 *2789:7 0.09622326
8 *2789:8 0.1177753
9 *2789:9 0.1177753
10 *2789:10 0.04597246
11 *2789:11 0.05677611
12 *2789:12 0.02789145
13 *2789:13 0.01450191
14 *2789:14 0.03158971
15 *2789:15 0.07252571
16 *2789:16 0.07252571
17 *2789:17 0.02810356
18 *2789:18 0.02667088

*RES
0 *268:Y *2789:18 1
1 *2789:11 *291:A2 1
2 *2789:11 *2789:10 1.308929
3 *2789:13 *292:A4 1
4 *2789:14 *2789:13 0.5187501
5 *2789:14 *2789:12 0.5187501
6 *2789:15 *2789:14 0.5
7 *2789:17 *2789:16 0.5
8 *2789:16 *2789:15 2.9375
9 *2789:18 *2789:17 0.7660714
10 *2789:5 *328:A2 0.4280001
11 *2789:6 *2789:5 1
12 *2789:7 *269:A 1
13 *2789:7 *2789:6 2.394643
14 *2789:10 *2789:9 0.5
15 *2789:9 *2789:8 4.023214
16 *2789:8 *2789:7 0.5
17 *2789:12 *2789:11 0.2983333

*END

*D_NET *2795 1.982657 //LENGTH 18.836 LUMPCC 0 DR

*CONN
*I *243:QN O *L 0 *C 34.944 22.176
*I *255:A2 I *L 0.45541 *C 39.504 19.288
*I *328:A4 I *L 0.552216 *C 40.568 24.456
*I *270:A2 I *L 0.466516 *C 43.152 24.152
*I *206:A3 I *L 0.535117 *C 44.672 22.328
*N *2795:5 *C 44.672 22.146
*N *2795:6 *C 44.672 22.316
*N *2795:7 *C 44.659 22.328
*N *2795:8 *C 43.152 24.151
*N *2795:9 *C 43.152 22.341
*N *2795:10 *C 43.152 22.328
*N *2795:11 *C 40.568 24.455
*N *2795:12 *C 39.504 19.302
*N *2795:13 *C 39.504 21.402
*N *2795:14 *C 39.518 21.416
*N *2795:15 *C 40.099 21.416
*N *2795:16 *C 40.112 21.430
*N *2795:17 *C 40.112 22.328
*N *2795:18 *C 40.568 22.341
*N *2795:19 *C 40.568 22.328
*N *2795:20 *C 34.958 22.328
*N *2795:21 *C 34.944 22.315
*N *2795:22 *C 34.944 22.177

*CAP
0 *243:QN 0.001
1 *255:A2 0.001
2 *328:A4 0.001
3 *270:A2 0.001
4 *206:A3 0.001
5 *2795:5 0.01497491
6 *2795:6 0.008797793
7 *2795:7 0.06620942
8 *2795:8 0.1154155
9 *2795:9 0.1166753
10 *2795:10 0.1834457
11 *2795:11 0.1475939
12 *2795:12 0.1563109
13 *2795:13 0.1577436
14 *2795:14 0.02863599
15 *2795:15 0.02863599
16 *2795:16 0.0543903
17 *2795:17 0.07840685
18 *2795:18 0.1706709
19 *2795:19 0.3734793
20 *2795:20 0.2562431
21 *2795:21 0.01073023
22 *2795:22 0.009297553

*RES
0 *243:QN *2795:22 1
1 *2795:6 *206:A3 1
2 *2795:6 *2795:5 0.2825
3 *2795:7 *2795:6 0.5
4 *2795:9 *2795:8 3.23125
5 *2795:10 *2795:9 0.5
6 *2795:10 *2795:7 2.690179
7 *2795:8 *270:A2 1
8 *2795:11 *328:A4 1
9 *2795:18 *2795:17 0.8142858
10 *2795:18 *2795:11 3.774107
11 *2795:19 *2795:18 0.5
12 *2795:19 *2795:10 4.614286
13 *2795:16 *2795:15 0.5
14 *2795:15 *2795:14 1.0375
15 *2795:13 *2795:12 3.751786
16 *2795:14 *2795:13 0.5
17 *2795:12 *255:A2 1
18 *2795:21 *2795:20 0.5
19 *2795:20 *2795:19 10.01875
20 *2795:22 *2795:21 0.2455357
21 *2795:17 *2795:16 1.604464

*END

*D_NET *2799 1.181364 //LENGTH 9.281 LUMPCC 0 DR

*CONN
*I *248:QN O *L 0 *C 38.440 15.488
*I *255:A4 I *L 0.443333 *C 39.170 19.313
*I *506:A2 I *L 0.537813 *C 39.656 12.600
*N *2799:3 *C 39.656 12.614
*N *2799:4 *C 39.656 15.931
*N *2799:5 *C 39.643 15.944
*N *2799:6 *C 38.759 19.288
*N *2799:7 *C 38.744 19.274
*N *2799:8 *C 38.744 15.958
*N *2799:9 *C 38.744 15.944
*N *2799:10 *C 38.454 15.944
*N *2799:11 *C 38.440 15.931
*N *2799:12 *C 38.440 15.502

*CAP
0 *248:QN 0.001
1 *255:A4 0.02923479
2 *506:A2 0.001
3 *2799:3 0.2177872
4 *2799:4 0.2192199
5 *2799:5 0.04588705
6 *2799:6 0.02715939
7 *2799:7 0.2394588
8 *2799:8 0.239162
9 *2799:9 0.06379631
10 *2799:10 0.01553704
11 *2799:11 0.04177723
12 *2799:12 0.04034455

*RES
0 *248:QN *2799:12 1
1 *2799:4 *2799:3 5.923214
2 *2799:5 *2799:4 0.5
3 *2799:3 *506:A2 1
4 *2799:8 *2799:7 5.923214
5 *2799:9 *2799:8 0.5
6 *2799:9 *2799:5 1.604464
7 *2799:6 *255:A4 0.822
8 *2799:7 *2799:6 1
9 *2799:11 *2799:10 0.5
10 *2799:10 *2799:9 0.5187501
11 *2799:12 *2799:11 0.7660714

*END

*D_NET *2803 1.712861 //LENGTH 17.423 LUMPCC 0 DR

*CONN
*I *247:QN O *L 0 *C 37.680 14.576
*I *507:A2 I *L 0.515513 *C 44.520 11.536
*I *253:A3 I *L 0.584801 *C 43.912 14.272
*I *254:A2 I *L 0.537813 *C 43.715 15.944
*I *321:A6 I *L 0.609639 *C 41.784 10.320
*N *2803:5 *C 41.784 10.321
*N *2803:6 *C 43.748 15.944
*N *2803:7 *C 43.760 15.931
*N *2803:8 *C 43.760 14.272
*N *2803:9 *C 43.912 14.272
*N *2803:10 *C 44.520 14.272
*N *2803:11 *C 44.520 11.550
*N *2803:12 *C 44.520 11.384
*N *2803:13 *C 44.507 11.384
*N *2803:14 *C 41.797 11.384
*N *2803:15 *C 41.784 11.370
*N *2803:16 *C 41.632 11.384
*N *2803:17 *C 41.632 14.107
*N *2803:18 *C 41.619 14.120
*N *2803:19 *C 37.694 14.120
*N *2803:20 *C 37.680 14.134
*N *2803:21 *C 37.680 14.575

*CAP
0 *247:QN 0.001
1 *507:A2 0.001
2 *253:A3 0.001
3 *254:A2 0.01642898
4 *321:A6 0.001
5 *2803:5 0.07205223
6 *2803:6 0.01435358
7 *2803:7 0.1065123
8 *2803:8 0.1167347
9 *2803:9 0.03312825
10 *2803:10 0.1583067
11 *2803:11 0.1377011
12 *2803:12 0.009613203
13 *2803:13 0.1326986
14 *2803:14 0.1326986
15 *2803:15 0.08288532
16 *2803:16 0.1515146
17 *2803:17 0.139742
18 *2803:18 0.1744371
19 *2803:19 0.1744371
20 *2803:20 0.02852507
21 *2803:21 0.02709239

*RES
0 *247:QN *2803:21 1
1 *2803:11 *507:A2 1
2 *2803:11 *2803:10 4.861608
3 *2803:9 *253:A3 1
4 *2803:9 *2803:8 0.2714286
5 *2803:6 *254:A2 0.2325
6 *2803:7 *2803:6 1
7 *2803:12 *2803:11 0.2758334
8 *2803:13 *2803:12 0.5
9 *2803:15 *2803:14 0.5
10 *2803:15 *2803:5 1.874107
11 *2803:14 *2803:13 4.8375
12 *2803:5 *321:A6 1
13 *2803:17 *2803:16 4.861607
14 *2803:18 *2803:17 0.5
15 *2803:20 *2803:19 0.5
16 *2803:19 *2803:18 7.008929
17 *2803:21 *2803:20 0.788393
18 *2803:16 *2803:15 0.2714286
19 *2803:8 *2803:7 2.961607
20 *2803:10 *2803:9 1.085714

*END

*D_NET *2809 0.7474233 //LENGTH 9.292 LUMPCC 0 DR

*CONN
*I *359:Y O *L 0 *C 30.384 17.920
*I *367:D I *L 0.543569 *C 25.216 16.096
*N *2809:2 *C 25.216 16.096
*N *2809:3 *C 25.216 16.236
*N *2809:4 *C 25.230 16.248
*N *2809:5 *C 29.611 16.248
*N *2809:6 *C 29.624 16.262
*N *2809:7 *C 29.624 18.363
*N *2809:8 *C 29.638 18.376
*N *2809:9 *C 30.219 18.376
*N *2809:10 *C 30.232 18.390
*N *2809:11 *C 30.232 18.666
*N *2809:12 *C 30.232 18.680
*N *2809:13 *C 30.372 18.680
*N *2809:14 *C 30.384 18.666
*N *2809:15 *C 30.384 17.934

*CAP
0 *359:Y 0.001
1 *367:D 0.001
2 *2809:2 0.009008836
3 *2809:3 0.01044151
4 *2809:4 0.1777748
5 *2809:5 0.1777754
6 *2809:6 0.08786277
7 *2809:7 0.0878633
8 *2809:8 0.02171711
9 *2809:9 0.02171711
10 *2809:10 0.01459428
11 *2809:11 0.01459376
12 *2809:12 0.009677169
13 *2809:13 0.009676623
14 *2809:14 0.05207667
15 *2809:15 0.05064399

*RES
0 *359:Y *2809:15 1
1 *2809:2 *367:D 1
2 *2809:3 *2809:2 0.2325
3 *2809:4 *2809:3 0.5
4 *2809:5 *2809:4 7.823215
5 *2809:6 *2809:5 0.5
6 *2809:7 *2809:6 3.751786
7 *2809:8 *2809:7 0.5
8 *2809:10 *2809:9 0.5
9 *2809:9 *2809:8 1.0375
10 *2809:12 *2809:11 0.5
11 *2809:11 *2809:10 0.4946429
12 *2809:14 *2809:13 0.5
13 *2809:13 *2809:12 0.2325
14 *2809:15 *2809:14 1.308929

*END

*D_NET *2814 0.7897961 //LENGTH 7.778 LUMPCC 0 DR

*CONN
*I *354:Y O *L 0 *C 25.064 27.952
*I *370:D I *L 0.543569 *C 29.776 26.128
*N *2814:2 *C 29.776 26.114
*N *2814:3 *C 29.776 25.686
*N *2814:4 *C 29.763 25.672
*N *2814:5 *C 25.078 25.672
*N *2814:6 *C 25.064 25.686
*N *2814:7 *C 25.064 27.939

*CAP
0 *354:Y 0.001
1 *370:D 0.001
2 *2814:2 0.03239481
3 *2814:3 0.03382749
4 *2814:4 0.2344691
5 *2814:5 0.2344691
6 *2814:6 0.1270342
7 *2814:7 0.1256015

*RES
0 *354:Y *2814:7 1
1 *2814:2 *370:D 1
2 *2814:3 *2814:2 0.7660714
3 *2814:4 *2814:3 0.5
4 *2814:6 *2814:5 0.5
5 *2814:5 *2814:4 8.366072
6 *2814:7 *2814:6 4.023215

*END

*D_NET *2818 0.4884758 //LENGTH 4.135 LUMPCC 0 DR

*CONN
*I *350:Y O *L 0 *C 20.808 35.552
*I *362:D I *L 0.543569 *C 18.832 37.376
*N *2818:2 *C 18.832 37.364
*N *2818:3 *C 18.832 37.224
*N *2818:4 *C 18.846 37.224
*N *2818:5 *C 20.794 37.224
*N *2818:6 *C 20.808 37.211
*N *2818:7 *C 20.808 35.566

*CAP
0 *350:Y 0.001
1 *362:D 0.001
2 *2818:2 0.01798065
3 *2818:3 0.01941333
4 *2818:4 0.09368919
5 *2818:5 0.09368919
6 *2818:6 0.1315681
7 *2818:7 0.1301354

*RES
0 *350:Y *2818:7 1
1 *2818:2 *362:D 1
2 *2818:3 *2818:2 0.2325
3 *2818:4 *2818:3 0.5
4 *2818:6 *2818:5 0.5
5 *2818:5 *2818:4 3.480358
6 *2818:7 *2818:6 2.9375

*END

*D_NET *2822 0.8932897 //LENGTH 8.543 LUMPCC 0 DR

*CONN
*I *346:Y O *L 0 *C 22.784 8.800
*I *374:D I *L 0.543569 *C 17.312 6.064
*N *2822:2 *C 17.312 6.064
*N *2822:3 *C 17.312 6.204
*N *2822:4 *C 17.326 6.216
*N *2822:5 *C 22.771 6.216
*N *2822:6 *C 22.784 6.230
*N *2822:7 *C 22.784 8.787

*CAP
0 *346:Y 0.001
1 *374:D 0.001
2 *2822:2 0.008234929
3 *2822:3 0.009667607
4 *2822:4 0.3217252
5 *2822:5 0.3217252
6 *2822:6 0.1156847
7 *2822:7 0.114252

*RES
0 *346:Y *2822:7 1
1 *2822:2 *374:D 1
2 *2822:3 *2822:2 0.2325
3 *2822:4 *2822:3 0.5
4 *2822:6 *2822:5 0.5
5 *2822:5 *2822:4 9.723214
6 *2822:7 *2822:6 4.566072

*END

*D_NET *2826 5.206665 //LENGTH 41.669 LUMPCC 0 DR

*CONN
*I *251:Y O *L 0 *C 22.024 24.000
*I *379:A3 I *L 0.548175 *C 20.352 23.240
*I *382:A3 I *L 0.548175 *C 23.796 23.240
*I *385:A3 I *L 0.548175 *C 23.796 16.856
*I *380:A3 I *L 0.548175 *C 23.848 16.552
*I *390:A3 I *L 0.548175 *C 23.696 13.512
*I *381:A3 I *L 0.548175 *C 22.784 13.208
*I *386:A3 I *L 0.548175 *C 20.352 13.208
*I *392:A3 I *L 0.548175 *C 17.768 13.208
*I *391:A3 I *L 0.548175 *C 17.768 16.552
*I *389:A3 I *L 0.548175 *C 17.212 16.856
*I *388:A3 I *L 0.548175 *C 17.768 20.200
*I *387:A3 I *L 0.548175 *C 18.224 23.544
*I *384:A3 I *L 0.548175 *C 18.832 23.240
*I *383:A3 I *L 0.548175 *C 19.744 23.544
*I *393:A3 I *L 0.548175 *C 17.160 10.168
*I *378:A3 I *L 0.548175 *C 21.872 23.240
*N *2826:17 *C 17.160 10.181
*N *2826:18 *C 17.160 13.195
*N *2826:19 *C 17.174 13.208
*N *2826:20 *C 19.744 23.558
*N *2826:21 *C 19.744 23.835
*N *2826:22 *C 19.730 23.848
*N *2826:23 *C 18.846 23.240
*N *2826:24 *C 18.984 23.240
*N *2826:25 *C 18.984 23.835
*N *2826:26 *C 18.984 23.848
*N *2826:27 *C 18.238 23.848
*N *2826:28 *C 18.224 23.835
*N *2826:29 *C 18.224 23.544
*N *2826:30 *C 18.224 22.038
*N *2826:31 *C 18.210 22.024
*N *2826:32 *C 17.782 22.024
*N *2826:33 *C 17.768 22.011
*N *2826:34 *C 17.768 20.200
*N *2826:35 *C 17.768 16.856
*N *2826:36 *C 17.160 16.674
*N *2826:37 *C 17.160 16.856
*N *2826:38 *C 17.160 16.844
*N *2826:39 *C 17.174 16.856
*N *2826:40 *C 17.602 16.856
*N *2826:41 *C 17.616 16.856
*N *2826:42 *C 17.616 16.552
*N *2826:43 *C 17.768 16.538
*N *2826:44 *C 17.768 13.222
*N *2826:45 *C 17.768 13.208
*N *2826:46 *C 20.352 13.026
*N *2826:47 *C 20.352 13.196
*N *2826:48 *C 20.352 13.208
*N *2826:49 *C 22.784 13.026
*N *2826:50 *C 22.784 13.196
*N *2826:51 *C 22.784 13.208
*N *2826:52 *C 23.696 13.208
*N *2826:53 *C 23.696 13.511
*N *2826:54 *C 23.697 13.512
*N *2826:55 *C 23.848 13.512
*N *2826:56 *C 23.848 16.552
*N *2826:57 *C 23.848 16.856
*N *2826:58 *C 23.848 16.856
*N *2826:59 *C 23.848 23.240
*N *2826:60 *C 23.848 23.227
*N *2826:61 *C 23.835 23.240
*N *2826:62 *C 20.352 23.058
*N *2826:63 *C 20.352 23.228
*N *2826:64 *C 20.366 23.240
*N *2826:65 *C 21.872 23.240
*N *2826:66 *C 21.872 23.254
*N *2826:67 *C 21.872 23.544
*N *2826:68 *C 22.024 23.544
*N *2826:69 *C 22.024 23.986

*CAP
0 *251:Y 0.001
1 *379:A3 0.001
2 *382:A3 0.01003454
3 *385:A3 0.0101571
4 *380:A3 0.001
5 *390:A3 0.001
6 *381:A3 0.001
7 *386:A3 0.001
8 *392:A3 0.001
9 *391:A3 0.001
10 *389:A3 0.009976863
11 *388:A3 0.001
12 *387:A3 0.001
13 *384:A3 0.001
14 *383:A3 0.001
15 *393:A3 0.001
16 *378:A3 0.001
17 *2826:17 0.1727057
18 *2826:18 0.1741384
19 *2826:19 0.0230269
20 *2826:20 0.02648973
21 *2826:21 0.02792241
22 *2826:22 0.05708973
23 *2826:23 0.006212796
24 *2826:24 0.05561124
25 *2826:25 0.04322134
26 *2826:26 0.1191759
27 *2826:27 0.05971395
28 *2826:28 0.01950516
29 *2826:29 0.1188349
30 *2826:30 0.09839016
31 *2826:31 0.02576498
32 *2826:32 0.02576498
33 *2826:33 0.1115635
34 *2826:34 0.3455294
35 *2826:35 0.2439873
36 *2826:36 0.01816193
37 *2826:37 0.007901465
38 *2826:38 0.01371432
39 *2826:39 0.02207089
40 *2826:40 0.02207089
41 *2826:41 0.03216931
42 *2826:42 0.03453703
43 *2826:43 0.2339099
44 *2826:44 0.2229535
45 *2826:45 0.1293792
46 *2826:46 0.01444751
47 *2826:47 0.008270393
48 *2826:48 0.2067352
49 *2826:49 0.01595777
50 *2826:50 0.009780653
51 *2826:51 0.142935
52 *2826:52 0.05690227
53 *2826:53 0.01197798
54 *2826:54 0.002823977
55 *2826:55 0.2801833
56 *2826:56 0.2950021
57 *2826:57 0.008081701
58 *2826:58 0.6073515
59 *2826:59 0.00795914
60 *2826:60 0.5773546
61 *2826:61 0.07848343
62 *2826:62 0.01778464
63 *2826:63 0.01160752
64 *2826:64 0.06283975
65 *2826:65 0.1436954
66 *2826:66 0.01617386
67 *2826:67 0.03148317
68 *2826:68 0.03804284
69 *2826:69 0.02510574

*RES
0 *251:Y *2826:69 1
1 *2826:56 *380:A3 1
2 *2826:56 *2826:55 5.428572
3 *2826:59 *382:A3 0.09166668
4 *2826:60 *2826:59 1
5 *2826:60 *2826:58 11.37589
6 *2826:57 *385:A3 0.09166668
7 *2826:58 *2826:57 1
8 *2826:58 *2826:56 0.5428572
9 *2826:54 *390:A3 1
10 *2826:54 *2826:53 0.5
11 *2826:53 *2826:52 0.5410715
12 *2826:50 *381:A3 1
13 *2826:50 *2826:49 0.2825
14 *2826:51 *2826:50 0.5
15 *2826:51 *2826:48 4.342857
16 *2826:69 *2826:68 0.7901786
17 *2826:61 *2826:60 0.5
18 *2826:66 *2826:65 0.5
19 *2826:66 *378:A3 1
20 *2826:65 *2826:64 2.690179
21 *2826:65 *2826:61 3.504465
22 *2826:63 *379:A3 1
23 *2826:63 *2826:62 0.2825
24 *2826:64 *2826:63 0.5
25 *2826:47 *386:A3 1
26 *2826:47 *2826:46 0.2825
27 *2826:48 *2826:47 0.5
28 *2826:48 *2826:45 4.614286
29 *2826:21 *2826:20 0.4946429
30 *2826:22 *2826:21 0.5
31 *2826:20 *383:A3 1
32 *2826:25 *2826:24 1.061607
33 *2826:26 *2826:25 0.5
34 *2826:26 *2826:22 1.333036
35 *2826:23 *384:A3 1
36 *2826:28 *2826:27 0.5
37 *2826:27 *2826:26 1.333036
38 *2826:29 *387:A3 1
39 *2826:29 *2826:28 0.5187501
40 *2826:30 *2826:29 2.690179
41 *2826:31 *2826:30 0.5
42 *2826:33 *2826:32 0.5
43 *2826:32 *2826:31 0.7660714
44 *2826:34 *388:A3 1
45 *2826:34 *2826:33 3.233036
46 *2826:43 *391:A3 1
47 *2826:43 *2826:42 0.2714286
48 *2826:44 *392:A3 1
49 *2826:44 *2826:43 5.923215
50 *2826:45 *2826:44 0.5
51 *2826:45 *2826:19 1.061607
52 *2826:41 *2826:40 0.5
53 *2826:41 *2826:35 0.2714286
54 *2826:40 *2826:39 0.7660715
55 *2826:38 *2826:37 1
56 *2826:38 *2826:36 0.2825
57 *2826:39 *2826:38 0.5
58 *2826:37 *389:A3 0.09166668
59 *2826:18 *2826:17 5.380358
60 *2826:19 *2826:18 0.5
61 *2826:17 *393:A3 1
62 *2826:42 *2826:41 0.5428572
63 *2826:35 *2826:34 5.971429
64 *2826:24 *2826:23 0.2473214
65 *2826:67 *2826:66 0.5187501
66 *2826:68 *2826:67 0.2714286
67 *2826:55 *2826:54 0.2696429
68 *2826:52 *2826:51 1.628572

*END

*D_NET *2844 0.3215418 //LENGTH 3.370 LUMPCC 0 DR

*CONN
*I *423:Y O *L 0 *C 33.576 26.128
*I *341:A I *L 0.732103 *C 31.296 25.976
*N *2844:2 *C 31.296 25.963
*N *2844:3 *C 31.296 25.686
*N *2844:4 *C 31.309 25.672
*N *2844:5 *C 33.562 25.672
*N *2844:6 *C 33.576 25.686
*N *2844:7 *C 33.576 26.114

*CAP
0 *423:Y 0.001
1 *341:A 0.001
2 *2844:2 0.01664279
3 *2844:3 0.01807547
4 *2844:4 0.1086808
5 *2844:5 0.1086808
6 *2844:6 0.03444726
7 *2844:7 0.03301458

*RES
0 *423:Y *2844:7 1
1 *2844:2 *341:A 1
2 *2844:3 *2844:2 0.4946429
3 *2844:4 *2844:3 0.5
4 *2844:6 *2844:5 0.5
5 *2844:5 *2844:4 4.023215
6 *2844:7 *2844:6 0.7660714

*END

*D_NET *2847 0.7533562 //LENGTH 9.435 LUMPCC 0 DR

*CONN
*I *169:Y O *L 0 *C 45.432 43.912
*I *497:D I *L 0.543569 *C 36.616 44.064
*N *2847:2 *C 45.432 43.730
*N *2847:3 *C 36.616 44.052
*N *2847:4 *C 36.616 43.912
*N *2847:5 *C 36.630 43.912
*N *2847:6 *C 45.419 43.912
*N *2847:7 *C 45.432 43.900

*CAP
0 *169:Y 0.001
1 *497:D 0.001
2 *2847:2 0.01970514
3 *2847:3 0.008098142
4 *2847:4 0.009530821
5 *2847:5 0.350247
6 *2847:6 0.350247
7 *2847:7 0.01352803

*RES
0 *169:Y *2847:7 1
1 *2847:3 *497:D 1
2 *2847:4 *2847:3 0.2325
3 *2847:5 *2847:4 0.5
4 *2847:7 *2847:6 0.5
5 *2847:7 *2847:2 0.2825
6 *2847:6 *2847:5 15.69464

*END

*D_NET *2852 0.5428918 //LENGTH 6.395 LUMPCC 0 DR

*CONN
*I *487:Y O *L 0 *C 42.240 33.880
*I *418:D I *L 0.543562 *C 36.464 34.032
*N *2852:2 *C 42.240 33.698
*N *2852:3 *C 36.464 34.020
*N *2852:4 *C 36.464 33.880
*N *2852:5 *C 36.477 33.880
*N *2852:6 *C 42.227 33.880
*N *2852:7 *C 42.240 33.867

*CAP
0 *487:Y 0.001
1 *418:D 0.001
2 *2852:2 0.01585842
3 *2852:3 0.008397046
4 *2852:4 0.009829724
5 *2852:5 0.2485627
6 *2852:6 0.2485627
7 *2852:7 0.0096813

*RES
0 *487:Y *2852:7 1
1 *2852:3 *418:D 1
2 *2852:4 *2852:3 0.2325
3 *2852:5 *2852:4 0.5
4 *2852:7 *2852:6 0.5
5 *2852:7 *2852:2 0.2825
6 *2852:6 *2852:5 10.26607

*END

*D_NET *2855 0.1394073 //LENGTH 1.192 LUMPCC 0 DR

*CONN
*I *320:Y O *L 0 *C 44.831 36.008
*I *165:A3 I *L 0.456834 *C 43.638 36.032

*CAP
0 *320:Y 0.06970365
1 *165:A3 0.06970365

*RES
0 *320:Y *165:A3 2.385

*END

*D_NET *2857 1.226918 //LENGTH 11.300 LUMPCC 0 DR

*CONN
*I *444:Y O *L 0 *C 41.784 37.528
*I *467:A2 I *L 0.55521 *C 40.872 32.512
*I *445:A2 I *L 0.537813 *C 43.608 34.184
*N *2857:3 *C 43.608 34.171
*N *2857:4 *C 43.608 32.373
*N *2857:5 *C 43.595 32.360
*N *2857:6 *C 40.886 32.360
*N *2857:7 *C 40.872 32.373
*N *2857:8 *C 40.872 32.526
*N *2857:9 *C 40.872 36.907
*N *2857:10 *C 40.886 36.920
*N *2857:11 *C 41.771 36.920
*N *2857:12 *C 41.784 36.934
*N *2857:13 *C 41.784 37.515

*CAP
0 *444:Y 0.001
1 *467:A2 0.001
2 *445:A2 0.001
3 *2857:3 0.1150476
4 *2857:4 0.1164803
5 *2857:5 0.1273843
6 *2857:6 0.1273843
7 *2857:7 0.01266986
8 *2857:8 0.2863867
9 *2857:9 0.2727773
10 *2857:10 0.03950581
11 *2857:11 0.03950581
12 *2857:12 0.0441042
13 *2857:13 0.04267152

*RES
0 *444:Y *2857:13 1
1 *2857:9 *2857:8 7.823215
2 *2857:10 *2857:9 0.5
3 *2857:12 *2857:11 0.5
4 *2857:11 *2857:10 1.580357
5 *2857:13 *2857:12 1.0375
6 *2857:8 *467:A2 1
7 *2857:8 *2857:7 0.255
8 *2857:7 *2857:6 0.5
9 *2857:6 *2857:5 4.837501
10 *2857:4 *2857:3 3.208929
11 *2857:5 *2857:4 0.5
12 *2857:3 *445:A2 1

*END

*D_NET *2861 0.3000705 //LENGTH 2.318 LUMPCC 0 DR

*CONN
*I *473:Y O *L 0 *C 43.274 29.168
*I *474:A3 I *L 0.519105 *C 43.000 27.676
*N *2861:2 *C 42.861 27.648
*N *2861:3 *C 42.848 27.662
*N *2861:4 *C 42.848 29.155
*N *2861:5 *C 42.863 29.168

*CAP
0 *473:Y 0.03434824
1 *474:A3 0.01607067
2 *2861:2 0.01399527
3 *2861:3 0.1016917
4 *2861:4 0.1016917
5 *2861:5 0.03227285

*RES
0 *473:Y *2861:5 0.8220001
1 *2861:2 *474:A3 0.2325
2 *2861:3 *2861:2 1
3 *2861:5 *2861:4 1
4 *2861:4 *2861:3 2.666071

*END

*D_NET *2863 0.6668534 //LENGTH 5.960 LUMPCC 0 DR

*CONN
*I *470:Y O *L 0 *C 45.888 34.336
*I *476:A3 I *L 0.465144 *C 46.040 29.168
*I *471:A2 I *L 0.573758 *C 46.192 31.600
*N *2863:3 *C 46.192 31.587
*N *2863:4 *C 46.192 31.448
*N *2863:5 *C 46.040 29.181
*N *2863:6 *C 46.040 31.448
*N *2863:7 *C 46.040 32.664
*N *2863:8 *C 45.888 32.664
*N *2863:9 *C 45.888 34.335

*CAP
0 *470:Y 0.001
1 *476:A3 0.001
2 *471:A2 0.001
3 *2863:3 0.0134133
4 *2863:4 0.02604441
5 *2863:5 0.1267659
6 *2863:6 0.2220168
7 *2863:7 0.09142527
8 *2863:8 0.09839909
9 *2863:9 0.0857887

*RES
0 *470:Y *2863:9 1
1 *2863:3 *471:A2 1
2 *2863:5 *476:A3 1
3 *2863:9 *2863:8 2.983929
4 *2863:8 *2863:7 0.2714286
5 *2863:7 *2863:6 2.171429
6 *2863:6 *2863:5 4.047322
7 *2863:6 *2863:4 0.2714286
8 *2863:4 *2863:3 0.2473214

*END

*D_NET *2866 0.528974 //LENGTH 4.586 LUMPCC 0 DR

*CONN
*I *476:Y O *L 0 *C 46.648 29.624
*I *164:A4 I *L 0.504499 *C 46.192 25.824
*N *2866:2 *C 46.192 25.838
*N *2866:3 *C 46.192 26.267
*N *2866:4 *C 46.206 26.280
*N *2866:5 *C 46.635 26.280
*N *2866:6 *C 46.648 26.294
*N *2866:7 *C 46.648 29.611

*CAP
0 *476:Y 0.001
1 *164:A4 0.001
2 *2866:2 0.03349644
3 *2866:3 0.03492912
4 *2866:4 0.02131061
5 *2866:5 0.02131061
6 *2866:6 0.20868
7 *2866:7 0.2072473

*RES
0 *476:Y *2866:7 1
1 *2866:2 *164:A4 1
2 *2866:3 *2866:2 0.7660714
3 *2866:4 *2866:3 0.5
4 *2866:6 *2866:5 0.5
5 *2866:5 *2866:4 0.7660715
6 *2866:7 *2866:6 5.923214

*END

*D_NET *2868 1.266088 //LENGTH 11.114 LUMPCC 0 DR

*CONN
*I *429:Y O *L 0 *C 43.304 30.688
*I *164:A1 I *L 0.47841 *C 46.496 25.976
*I *430:A1 I *L 0.604822 *C 44.216 25.824
*I *433:A1 I *L 0.545966 *C 43.152 32.664
*N *2868:4 *C 43.303 30.840
*N *2868:5 *C 43.152 32.651
*N *2868:6 *C 43.152 30.840
*N *2868:7 *C 44.216 25.825
*N *2868:8 *C 46.496 25.794
*N *2868:9 *C 46.496 25.963
*N *2868:10 *C 46.483 25.976
*N *2868:11 *C 44.230 25.976
*N *2868:12 *C 44.216 25.963
*N *2868:13 *C 44.064 25.976
*N *2868:14 *C 44.064 30.839
*N *2868:15 *C 44.063 30.840
*N *2868:16 *C 43.318 30.840
*N *2868:17 *C 43.304 30.828
*N *2868:18 *C 43.304 30.701

*CAP
0 *429:Y 0.001
1 *164:A1 0.001
2 *430:A1 0.001
3 *433:A1 0.001
4 *2868:4 0.003789
5 *2868:5 0.1148651
6 *2868:6 0.1263092
7 *2868:7 0.00840416
8 *2868:8 0.02125196
9 *2868:9 0.01507484
10 *2868:10 0.09534202
11 *2868:11 0.09534202
12 *2868:12 0.01933784
13 *2868:13 0.3289858
14 *2868:14 0.3171126
15 *2868:15 0.03999678
16 *2868:16 0.03999678
17 *2868:17 0.02457052
18 *2868:18 0.01170967

*RES
0 *429:Y *2868:18 1
1 *2868:7 *430:A1 1
2 *2868:12 *2868:11 0.5
3 *2868:12 *2868:7 0.2455357
4 *2868:11 *2868:10 4.023214
5 *2868:9 *164:A1 1
6 *2868:9 *2868:8 0.2825
7 *2868:10 *2868:9 0.5
8 *2868:18 *2868:17 0.2116667
9 *2868:14 *2868:13 8.683929
10 *2868:15 *2868:14 0.5
11 *2868:17 *2868:16 0.5
12 *2868:17 *2868:6 0.2714286
13 *2868:17 *2868:4 0.001
14 *2868:16 *2868:15 1.33125
15 *2868:5 *433:A1 1
16 *2868:6 *2868:5 3.233036
17 *2868:13 *2868:12 0.2714286

*END

*D_NET *2872 0.1838927 //LENGTH 1.838 LUMPCC 0 DR

*CONN
*I *484:Y O *L 0 *C 45.432 31.296
*I *485:A5 I *L 0.557577 *C 45.736 32.664
*N *2872:2 *C 45.723 32.664
*N *2872:3 *C 45.432 32.664
*N *2872:4 *C 45.432 31.309

*CAP
0 *484:Y 0.001
1 *485:A5 0.001
2 *2872:2 0.0125784
3 *2872:3 0.09472141
4 *2872:4 0.07459293

*RES
0 *484:Y *2872:4 1
1 *2872:2 *485:A5 1
2 *2872:4 *2872:3 2.41875
3 *2872:3 *2872:2 0.5187501

*END

*D_NET *2875 0.2765004 //LENGTH 2.919 LUMPCC 0 DR

*CONN
*I *486:Y O *L 0 *C 42.696 34.032
*I *487:A2 I *L 0.515513 *C 41.024 34.944
*N *2875:2 *C 41.024 34.931
*N *2875:3 *C 41.024 34.792
*N *2875:4 *C 41.038 34.792
*N *2875:5 *C 42.683 34.792
*N *2875:6 *C 42.696 34.779
*N *2875:7 *C 42.696 34.046

*CAP
0 *486:Y 0.001
1 *487:A2 0.001
2 *2875:2 0.01610001
3 *2875:3 0.01753269
4 *2875:4 0.07867798
5 *2875:5 0.07867798
6 *2875:6 0.04247223
7 *2875:7 0.04103955

*RES
0 *486:Y *2875:7 1
1 *2875:2 *487:A2 1
2 *2875:3 *2875:2 0.2325
3 *2875:4 *2875:3 0.5
4 *2875:6 *2875:5 0.5
5 *2875:5 *2875:4 2.9375
6 *2875:7 *2875:6 1.308929

*END

*D_NET *2877 0.8585624 //LENGTH 8.434 LUMPCC 0 DR

*CONN
*I *456:Y O *L 0 *C 46.648 39.200
*I *170:A2 I *L 0.515513 *C 45.781 38.592
*I *489:A4 I *L 0.514778 *C 42.733 39.200
*I *488:A I *L 0.582888 *C 42.392 40.872
*I *170:A1 I *L 0.484201 *C 46.070 39.352
*N *2877:5 *C 46.648 39.466
*N *2877:6 *C 46.608 39.466
*N *2877:7 *C 46.608 39.352
*N *2877:8 *C 46.952 38.902
*N *2877:9 *C 46.648 38.902
*N *2877:10 *C 46.608 38.902
*N *2877:11 *C 46.608 39.200
*N *2877:12 *C 42.392 40.858
*N *2877:13 *C 42.392 40.278
*N *2877:14 *C 42.406 40.264
*N *2877:15 *C 42.835 40.264
*N *2877:16 *C 42.848 40.251
*N *2877:17 *C 42.836 39.200
*N *2877:18 *C 42.848 39.212
*N *2877:19 *C 42.848 39.366
*N *2877:20 *C 42.861 39.352
*N *2877:21 *C 45.736 38.592
*N *2877:22 *C 45.736 38.605
*N *2877:23 *C 45.736 39.339
*N *2877:24 *C 45.736 39.352
*N *2877:25 *C 46.635 39.352
*N *2877:26 *C 46.648 39.340
*N *2877:27 *C 46.648 39.200
*N *2877:28 *C 46.648 39.200

*CAP
0 *456:Y 0.001
1 *170:A2 0.01099696
2 *489:A4 0.01663462
3 *488:A 0.001
4 *170:A1 0.03567455
5 *2877:5 0.001
6 *2877:6 0.001
7 *2877:7 0.03567455
8 *2877:8 0.001
9 *2877:9 0.001
10 *2877:10 0.001
11 *2877:11 0.001
12 *2877:12 0.03153798
13 *2877:13 0.03297066
14 *2877:14 0.02452151
15 *2877:15 0.02452151
16 *2877:16 0.06740496
17 *2877:17 0.01455922
18 *2877:18 0.0179396
19 *2877:19 0.08741996
20 *2877:20 0.1258159
21 *2877:21 0.008921565
22 *2877:22 0.0483707
23 *2877:23 0.04807388
24 *2877:24 0.1640801
25 *2877:25 0.03589201
26 *2877:26 0.00999248
27 *2877:27 0.008559803
28 *2877:28 0.001

*RES
0 *456:Y *2877:28 0.001
1 *2877:26 *2877:25 0.5
2 *2877:25 *2877:24 1.604464
3 *2877:27 *2877:26 0.2325
4 *2877:23 *2877:22 1.308929
5 *2877:24 *2877:23 0.5
6 *2877:24 *2877:20 5.133036
7 *2877:21 *170:A2 0.09166668
8 *2877:22 *2877:21 1
9 *2877:19 *2877:18 0.255
10 *2877:19 *2877:16 1.580357
11 *2877:20 *2877:19 0.5
12 *2877:17 *489:A4 0.1716667
13 *2877:18 *2877:17 1
14 *2877:16 *2877:15 0.5
15 *2877:15 *2877:14 0.7660714
16 *2877:13 *2877:12 1.0375
17 *2877:14 *2877:13 0.5
18 *2877:12 *488:A 1
19 *2877:7 *170:A1 1.076
20 *2877:7 *2877:6 0.228
21 *2877:10 *2877:9 0.08000001
22 *2877:9 *2877:8 0.6080001
23 *2877:11 *2877:10 0.5960001
24 *2877:11 *2877:7 0.304
25 *2877:6 *2877:5 0.08000001
26 *2877:28 *2877:27 1
27 *2877:28 *2877:11 0.03609091

*END

*D_NET *2884 2.183161 //LENGTH 21.036 LUMPCC 0 DR

*CONN
*I *433:Y O *L 0 *C 43.760 32.664
*I *494:A3 I *L 0.456834 *C 45.736 42.696
*I *169:A5 I *L 0.542358 *C 46.040 44.064
*I *490:A3 I *L 0.465144 *C 46.800 42.544
*I *492:A5 I *L 0.542358 *C 43.456 46.192
*I *496:A2 I *L 0.516516 *C 43.912 41.632
*N *2884:6 *C 43.899 41.632
*N *2884:7 *C 43.456 46.178
*N *2884:8 *C 43.456 45.736
*N *2884:9 *C 43.608 45.736
*N *2884:10 *C 46.800 42.531
*N *2884:11 *C 46.800 42.102
*N *2884:12 *C 46.787 42.088
*N *2884:13 *C 46.040 44.052
*N *2884:14 *C 46.040 43.912
*N *2884:15 *C 46.027 43.912
*N *2884:16 *C 45.750 43.912
*N *2884:17 *C 45.736 43.899
*N *2884:18 *C 45.736 42.696
*N *2884:19 *C 45.736 42.102
*N *2884:20 *C 45.736 42.088
*N *2884:21 *C 43.622 42.088
*N *2884:22 *C 43.608 42.088
*N *2884:23 *C 43.608 41.632
*N *2884:24 *C 43.608 37.528
*N *2884:25 *C 43.760 37.528
*N *2884:26 *C 43.760 32.678

*CAP
0 *433:Y 0.001
1 *494:A3 0.001
2 *169:A5 0.001
3 *490:A3 0.001
4 *492:A5 0.001
5 *496:A2 0.001
6 *2884:6 0.01296858
7 *2884:7 0.0320091
8 *2884:8 0.04461825
9 *2884:9 0.1970341
10 *2884:10 0.03188025
11 *2884:11 0.03331293
12 *2884:12 0.04608658
13 *2884:13 0.01339737
14 *2884:14 0.01483005
15 *2884:15 0.01753525
16 *2884:16 0.01753525
17 *2884:17 0.07384412
18 *2884:18 0.1114612
19 *2884:19 0.03667758
20 *2884:20 0.1415156
21 *2884:21 0.0930568
22 *2884:22 0.2126515
23 *2884:23 0.2713025
24 *2884:24 0.236236
25 *2884:25 0.275757
26 *2884:26 0.2634512

*RES
0 *433:Y *2884:26 1
1 *2884:11 *2884:10 0.7660714
2 *2884:12 *2884:11 0.5
3 *2884:10 *490:A3 1
4 *2884:17 *2884:16 0.5
5 *2884:16 *2884:15 0.4946429
6 *2884:14 *2884:13 0.2325
7 *2884:15 *2884:14 0.5
8 *2884:13 *169:A5 1
9 *2884:18 *494:A3 1
10 *2884:18 *2884:17 2.147322
11 *2884:19 *2884:18 1.061607
12 *2884:20 *2884:19 0.5
13 *2884:20 *2884:12 1.875893
14 *2884:6 *496:A2 1
15 *2884:26 *2884:25 8.661608
16 *2884:22 *2884:21 0.5
17 *2884:22 *2884:9 6.514287
18 *2884:21 *2884:20 3.775893
19 *2884:7 *492:A5 1
20 *2884:8 *2884:7 0.7901786
21 *2884:9 *2884:8 0.2714286
22 *2884:24 *2884:23 7.328571
23 *2884:23 *2884:22 0.8142858
24 *2884:23 *2884:6 0.5187501
25 *2884:25 *2884:24 0.2714286

*END

*D_NET *2889 1.322858 //LENGTH 12.721 LUMPCC 0 DR

*CONN
*I *415:QN O *L 0 *C 34.944 28.864
*I *424:A3 I *L 0.449356 *C 40.264 29.320
*I *419:A3 I *L 0.449356 *C 41.328 27.496
*I *473:A2 I *L 0.466516 *C 42.975 29.345
*I *427:A2 I *L 0.55521 *C 41.480 30.992
*N *2889:5 *C 41.480 30.979
*N *2889:6 *C 41.480 29.320
*N *2889:7 *C 41.328 29.320
*N *2889:8 *C 41.328 29.320
*N *2889:9 *C 41.328 27.510
*N *2889:10 *C 41.328 29.016
*N *2889:11 *C 41.315 29.016
*N *2889:12 *C 40.264 29.306
*N *2889:13 *C 40.264 29.030
*N *2889:14 *C 40.264 29.016
*N *2889:15 *C 34.958 29.016
*N *2889:16 *C 34.944 29.003
*N *2889:17 *C 34.944 28.865

*CAP
0 *415:QN 0.001
1 *424:A3 0.001
2 *419:A3 0.001
3 *473:A2 0.09242468
4 *427:A2 0.001
5 *2889:5 0.1133077
6 *2889:6 0.1273974
7 *2889:7 0.09820129
8 *2889:8 0.03067969
9 *2889:9 0.09458066
10 *2889:10 0.1184836
11 *2889:11 0.05192742
12 *2889:12 0.02476936
13 *2889:13 0.02620204
14 *2889:14 0.2891732
15 *2889:15 0.2348735
16 *2889:16 0.009135345
17 *2889:17 0.007702667

*RES
0 *415:QN *2889:17 1
1 *2889:5 *427:A2 1
2 *2889:7 *473:A2 3.294
3 *2889:8 *2889:7 1
4 *2889:8 *2889:6 0.2714286
5 *2889:9 *419:A3 1
6 *2889:10 *2889:9 2.690179
7 *2889:10 *2889:8 0.5428571
8 *2889:11 *2889:10 0.5
9 *2889:13 *2889:12 0.4946429
10 *2889:14 *2889:13 0.5
11 *2889:14 *2889:11 1.875893
12 *2889:12 *424:A3 1
13 *2889:16 *2889:15 0.5
14 *2889:15 *2889:14 9.475893
15 *2889:17 *2889:16 0.2455357
16 *2889:6 *2889:5 2.961608

*END

*D_NET *2895 0.9233517 //LENGTH 10.104 LUMPCC 0 DR

*CONN
*I *417:Q O *L 0 *C 40.416 35.704
*I *442:A2 I *L 0.578798 *C 43.912 37.528
*I *320:A5 I *L 0.551519 *C 45.584 36.160
*I *320:A3 I *L 0.536755 *C 45.736 35.704
*I *320:A1 I *L 0.483711 *C 46.344 36.008
*N *2895:5 *C 46.344 36.022
*N *2895:6 *C 46.344 36.299
*N *2895:7 *C 46.331 36.312
*N *2895:8 *C 45.736 35.718
*N *2895:9 *C 45.736 36.312
*N *2895:10 *C 45.584 36.172
*N *2895:11 *C 45.585 36.312
*N *2895:12 *C 45.584 36.312
*N *2895:13 *C 45.584 36.616
*N *2895:14 *C 43.912 37.515
*N *2895:15 *C 43.912 36.630
*N *2895:16 *C 43.912 36.616
*N *2895:17 *C 40.430 36.616
*N *2895:18 *C 40.416 36.602
*N *2895:19 *C 40.416 35.718

*CAP
0 *417:Q 0.001
1 *442:A2 0.001
2 *320:A5 0.001
3 *320:A3 0.001
4 *320:A1 0.001
5 *2895:5 0.02138347
6 *2895:6 0.02281615
7 *2895:7 0.03188592
8 *2895:8 0.03327047
9 *2895:9 0.04559025
10 *2895:10 0.01428125
11 *2895:11 0.02422881
12 *2895:12 0.0444891
13 *2895:13 0.07876354
14 *2895:14 0.06275874
15 *2895:15 0.06419142
16 *2895:16 0.2148551
17 *2895:17 0.1486947
18 *2895:18 0.05628777
19 *2895:19 0.05485509

*RES
0 *417:Q *2895:19 1
1 *2895:6 *2895:5 0.4946429
2 *2895:7 *2895:6 0.5
3 *2895:5 *320:A1 1
4 *2895:8 *320:A3 1
5 *2895:11 *2895:10 0.2325
6 *2895:11 *2895:9 0.2696429
7 *2895:12 *2895:11 0.5
8 *2895:12 *2895:7 1.333036
9 *2895:10 *320:A5 1
10 *2895:15 *2895:14 1.580357
11 *2895:16 *2895:15 0.5
12 *2895:16 *2895:13 2.985714
13 *2895:14 *442:A2 1
14 *2895:18 *2895:17 0.5
15 *2895:17 *2895:16 6.21875
16 *2895:19 *2895:18 1.580357
17 *2895:9 *2895:8 1.061607
18 *2895:13 *2895:12 0.5428572

*END

*D_NET *2899 0.8463595 //LENGTH 8.898 LUMPCC 0 DR

*CONN
*I *415:Q O *L 0 *C 35.096 29.016
*I *425:A1 I *L 0.545966 *C 40.416 30.840
*I *426:A1 I *L 0.549073 *C 40.994 29.041
*N *2899:3 *C 40.583 29.016
*N *2899:4 *C 40.568 29.030
*N *2899:5 *C 40.568 29.306
*N *2899:6 *C 40.555 29.320
*N *2899:7 *C 40.416 30.827
*N *2899:8 *C 40.416 30.245
*N *2899:9 *C 40.404 30.232
*N *2899:10 *C 40.264 30.232
*N *2899:11 *C 40.264 30.219
*N *2899:12 *C 40.264 29.334
*N *2899:13 *C 40.264 29.320
*N *2899:14 *C 35.110 29.320
*N *2899:15 *C 35.096 29.306
*N *2899:16 *C 35.096 29.030

*CAP
0 *415:Q 0.001
1 *425:A1 0.001
2 *426:A1 0.03029492
3 *2899:3 0.02821952
4 *2899:4 0.02425208
5 *2899:5 0.02395526
6 *2899:6 0.01581734
7 *2899:7 0.0394543
8 *2899:8 0.04088698
9 *2899:9 0.01304256
10 *2899:10 0.0130431
11 *2899:11 0.04344415
12 *2899:12 0.04344415
13 *2899:13 0.2575568
14 *2899:14 0.2393666
15 *2899:15 0.01650718
16 *2899:16 0.0150745

*RES
0 *415:Q *2899:16 1
1 *2899:5 *2899:4 0.4946429
2 *2899:6 *2899:5 0.5
3 *2899:3 *426:A1 0.822
4 *2899:4 *2899:3 1
5 *2899:13 *2899:12 0.5
6 *2899:13 *2899:6 0.5187501
7 *2899:12 *2899:11 1.580357
8 *2899:10 *2899:9 0.2325
9 *2899:11 *2899:10 0.5
10 *2899:8 *2899:7 1.0375
11 *2899:9 *2899:8 0.5
12 *2899:7 *425:A1 1
13 *2899:15 *2899:14 0.5
14 *2899:14 *2899:13 9.204465
15 *2899:16 *2899:15 0.4946429

*END

*D_NET *2903 1.636926 //LENGTH 14.869 LUMPCC 0 DR

*CONN
*I *411:Q O *L 0 *C 37.376 41.176
*I *491:A2 I *L 0.509119 *C 41.480 45.736
*I *495:A2 I *L 0.516516 *C 43.912 41.936
*I *496:A6 I *L 0.639573 *C 44.672 41.328
*N *2903:4 *C 44.672 41.315
*N *2903:5 *C 44.672 40.886
*N *2903:6 *C 44.659 40.872
*N *2903:7 *C 43.913 41.936
*N *2903:8 *C 44.216 41.936
*N *2903:9 *C 44.216 40.886
*N *2903:10 *C 44.216 40.872
*N *2903:11 *C 41.480 45.723
*N *2903:12 *C 41.480 40.886
*N *2903:13 *C 41.480 40.872
*N *2903:14 *C 37.390 40.872
*N *2903:15 *C 37.376 40.886
*N *2903:16 *C 37.376 41.163

*CAP
0 *411:Q 0.001
1 *491:A2 0.001
2 *495:A2 0.001
3 *496:A6 0.001
4 *2903:4 0.03089721
5 *2903:5 0.03232989
6 *2903:6 0.02278919
7 *2903:7 0.01199984
8 *2903:8 0.08507551
9 *2903:9 0.06689855
10 *2903:10 0.157204
11 *2903:11 0.349288
12 *2903:12 0.3507207
13 *2903:13 0.3149739
14 *2903:14 0.1805591
15 *2903:15 0.01581137
16 *2903:16 0.01437869

*RES
0 *411:Q *2903:16 1
1 *2903:5 *2903:4 0.7660714
2 *2903:6 *2903:5 0.5
3 *2903:4 *496:A6 1
4 *2903:9 *2903:8 1.875893
5 *2903:10 *2903:9 0.5
6 *2903:10 *2903:6 0.7901786
7 *2903:7 *495:A2 1
8 *2903:12 *2903:11 8.637501
9 *2903:13 *2903:12 0.5
10 *2903:13 *2903:10 4.885715
11 *2903:11 *491:A2 1
12 *2903:15 *2903:14 0.5
13 *2903:14 *2903:13 7.304465
14 *2903:16 *2903:15 0.4946429
15 *2903:8 *2903:7 0.5410715

*END

*D_NET *2906 0.6138831 //LENGTH 6.440 LUMPCC 0 DR

*CONN
*I *475:Y O *L 0 *C 44.186 29.168
*I *415:D I *L 0.543562 *C 38.744 29.472
*N *2906:2 *C 38.744 29.472
*N *2906:3 *C 38.744 29.612
*N *2906:4 *C 38.758 29.624
*N *2906:5 *C 43.747 29.624
*N *2906:6 *C 43.760 29.611
*N *2906:7 *C 43.760 29.181
*N *2906:8 *C 43.775 29.168

*CAP
0 *475:Y 0.03362561
1 *415:D 0.001
2 *2906:2 0.01038622
3 *2906:3 0.0118189
4 *2906:4 0.2359172
5 *2906:5 0.2359172
6 *2906:6 0.02668551
7 *2906:7 0.02698233
8 *2906:8 0.03155021

*RES
0 *475:Y *2906:8 0.8220001
1 *2906:2 *415:D 1
2 *2906:3 *2906:2 0.2325
3 *2906:4 *2906:3 0.5
4 *2906:6 *2906:5 0.5
5 *2906:5 *2906:4 8.908929
6 *2906:8 *2906:7 1
7 *2906:7 *2906:6 0.7660714

*END

*D_NET *2908 0.2791378 //LENGTH 3.066 LUMPCC 0 DR

*CONN
*I *506:Y O *L 0 *C 40.416 12.752
*I *508:A2 I *L 0.538095 *C 39.808 10.624
*N *2908:2 *C 39.808 10.638
*N *2908:3 *C 39.808 11.370
*N *2908:4 *C 39.822 11.384
*N *2908:5 *C 40.403 11.384
*N *2908:6 *C 40.416 11.398
*N *2908:7 *C 40.416 12.739

*CAP
0 *506:Y 0.001
1 *508:A2 0.001
2 *2908:2 0.04856224
3 *2908:3 0.04999492
4 *2908:4 0.02911746
5 *2908:5 0.02911746
6 *2908:6 0.06088918
7 *2908:7 0.0594565

*RES
0 *506:Y *2908:7 1
1 *2908:2 *508:A2 1
2 *2908:3 *2908:2 1.308929
3 *2908:4 *2908:3 0.5
4 *2908:6 *2908:5 0.5
5 *2908:5 *2908:4 1.0375
6 *2908:7 *2908:6 2.394643

*END

*D_NET *2911 0.2374478 //LENGTH 2.767 LUMPCC 0 DR

*CONN
*I *204:Y O *L 0 *C 7.128 9.408
*I *205:A3 I *L 0.539281 *C 6.368 11.080
*N *2911:2 *C 6.368 11.067
*N *2911:3 *C 6.368 9.574
*N *2911:4 *C 6.381 9.560
*N *2911:5 *C 7.115 9.560
*N *2911:6 *C 7.128 9.548
*N *2911:7 *C 7.128 9.408

*CAP
0 *204:Y 0.001
1 *205:A3 0.001
2 *2911:2 0.07704405
3 *2911:3 0.07847673
4 *2911:4 0.03191527
5 *2911:5 0.03191527
6 *2911:6 0.008764587
7 *2911:7 0.007331909

*RES
0 *204:Y *2911:7 1
1 *2911:2 *205:A3 1
2 *2911:3 *2911:2 2.666071
3 *2911:4 *2911:3 0.5
4 *2911:6 *2911:5 0.5
5 *2911:5 *2911:4 1.308929
6 *2911:7 *2911:6 0.2325

*END

*D_NET *2914 0.3114839 //LENGTH 2.914 LUMPCC 0 DR

*CONN
*I *210:Y O *L 0 *C 29.472 42.240
*I *236:A5 I *L 0.557577 *C 28.256 40.872
*N *2914:2 *C 28.256 40.886
*N *2914:3 *C 28.256 41.771
*N *2914:4 *C 28.270 41.784
*N *2914:5 *C 29.459 41.784
*N *2914:6 *C 29.472 41.797
*N *2914:7 *C 29.472 42.227

*CAP
0 *210:Y 0.001
1 *236:A5 0.001
2 *2914:2 0.06031086
3 *2914:3 0.06174354
4 *2914:4 0.06647391
5 *2914:5 0.06647391
6 *2914:6 0.02795717
7 *2914:7 0.02652449

*RES
0 *210:Y *2914:7 1
1 *2914:2 *236:A5 1
2 *2914:3 *2914:2 1.580357
3 *2914:4 *2914:3 0.5
4 *2914:6 *2914:5 0.5
5 *2914:5 *2914:4 2.123214
6 *2914:7 *2914:6 0.7660714

*END

*D_NET *2917 1.265062 //LENGTH 12.946 LUMPCC 0 DR

*CONN
*I *81:Y O *L 0 *C 37.072 10.472
*I *86:A5 I *L 0.542358 *C 33.424 19.440
*N *2917:2 *C 33.424 19.427
*N *2917:3 *C 33.424 17.782
*N *2917:4 *C 33.438 17.768
*N *2917:5 *C 37.059 17.768
*N *2917:6 *C 37.072 17.755
*N *2917:7 *C 37.072 10.486

*CAP
0 *81:Y 0.001
1 *86:A5 0.001
2 *2917:2 0.1071964
3 *2917:3 0.1086291
4 *2917:4 0.1864754
5 *2917:5 0.1864754
6 *2917:6 0.3378592
7 *2917:7 0.3364266

*RES
0 *81:Y *2917:7 1
1 *2917:2 *86:A5 1
2 *2917:3 *2917:2 2.9375
3 *2917:4 *2917:3 0.5
4 *2917:6 *2917:5 0.5
5 *2917:5 *2917:4 6.466072
6 *2917:7 *2917:6 12.98036

*END

*D_NET *2920 0.4029779 //LENGTH 4.103 LUMPCC 0 DR

*CONN
*I *86:Y O *L 0 *C 32.754 19.592
*I *105:A4 I *L 0.443333 *C 29.472 19.288
*N *2920:2 *C 32.512 19.410
*N *2920:3 *C 29.472 19.302
*N *2920:4 *C 29.472 19.579
*N *2920:5 *C 29.486 19.592
*N *2920:6 *C 32.498 19.592
*N *2920:7 *C 32.512 19.579
*N *2920:8 *C 32.527 19.592

*CAP
0 *86:Y 0.01884628
1 *105:A4 0.001
2 *2920:2 0.01838472
3 *2920:3 0.01855206
4 *2920:4 0.01998474
5 *2920:5 0.1477511
6 *2920:6 0.1477511
7 *2920:7 0.0139371
8 *2920:8 0.01677088

*RES
0 *86:Y *2920:8 0.454
1 *2920:3 *105:A4 1
2 *2920:4 *2920:3 0.4946429
3 *2920:5 *2920:4 0.5
4 *2920:7 *2920:6 0.5
5 *2920:7 *2920:2 0.2825
6 *2920:6 *2920:5 5.380357
7 *2920:8 *2920:7 1

*END

*D_NET *2551 1.783921 //LENGTH 17.341 LUMPCC 0 DR

*CONN
*I *500:Y O *L 0 *C 22.024 36.160
*I *109:A3 I *L 0.507548 *C 20.352 43.304
*I *63:A5 I *L 0.566579 *C 19.592 46.040
*I *61:A5 I *L 0.583269 *C 18.376 42.696
*I *59:A3 I *L 0.507548 *C 16.704 43.304
*N *2551:5 *C 16.704 43.291
*N *2551:6 *C 16.704 42.710
*N *2551:7 *C 16.718 42.696
*N *2551:8 *C 18.376 42.564
*N *2551:9 *C 18.376 42.684
*N *2551:10 *C 18.376 42.696
*N *2551:11 *C 19.591 46.040
*N *2551:12 *C 19.440 46.040
*N *2551:13 *C 19.440 42.710
*N *2551:14 *C 19.440 42.696
*N *2551:15 *C 20.352 43.291
*N *2551:16 *C 20.352 42.710
*N *2551:17 *C 20.352 42.696
*N *2551:18 *C 22.011 42.696
*N *2551:19 *C 22.024 42.683
*N *2551:20 *C 22.024 36.174

*CAP
0 *500:Y 0.001
1 *109:A3 0.001
2 *63:A5 0.001
3 *61:A5 0.001
4 *59:A3 0.001
5 *2551:5 0.04973267
6 *2551:6 0.05116535
7 *2551:7 0.07671335
8 *2551:8 0.01529742
9 *2551:9 0.007143461
10 *2551:10 0.124363
11 *2551:11 0.005514834
12 *2551:12 0.2176889
13 *2551:13 0.205997
14 *2551:14 0.09115172
15 *2551:15 0.04299745
16 *2551:16 0.04443013
17 *2551:17 0.1214113
18 *2551:18 0.07751387
19 *2551:19 0.3246166
20 *2551:20 0.3231839

*RES
0 *500:Y *2551:20 1
1 *2551:19 *2551:18 0.5
2 *2551:18 *2551:17 2.961607
3 *2551:20 *2551:19 11.62321
4 *2551:16 *2551:15 1.0375
5 *2551:17 *2551:16 0.5
6 *2551:17 *2551:14 1.628572
7 *2551:15 *109:A3 1
8 *2551:13 *2551:12 5.947322
9 *2551:14 *2551:13 0.5
10 *2551:14 *2551:10 1.9
11 *2551:11 *63:A5 1
12 *2551:9 *61:A5 1
13 *2551:9 *2551:8 0.1991667
14 *2551:10 *2551:9 0.5
15 *2551:10 *2551:7 2.961607
16 *2551:6 *2551:5 1.0375
17 *2551:7 *2551:6 0.5
18 *2551:5 *59:A3 1
19 *2551:12 *2551:11 0.2696429

*END

*D_NET *3 3.827356 //LENGTH 50.082 LUMPCC 0 DR

*CONN
*P *3 I *L 0 *C 52.454 1.960
*I *466:A2 I *L 0.577157 *C 24.152 19.136
*I *382:A2 I *L 0.501039 *C 23.392 22.328
*N *3:3 *C 23.392 22.315
*N *3:4 *C 23.392 19.302
*N *3:5 *C 23.405 19.288
*N *3:6 *C 24.152 19.136
*N *3:7 *C 24.152 19.276
*N *3:8 *C 24.152 19.288
*N *3:9 *C 27.178 19.288
*N *3:10 *C 27.192 19.274
*N *3:11 *C 27.192 1.974
*N *3:12 *C 27.206 1.960

*CAP
0 *3 0.8230787
1 *466:A2 0.001
2 *382:A2 0.001
3 *3:3 0.2188062
4 *3:4 0.2202388
5 *3:5 0.03335762
6 *3:6 0.01860836
7 *3:7 0.02004103
8 *3:8 0.1721493
9 *3:9 0.13642
10 *3:10 0.6809745
11 *3:11 0.6809745
12 *3:12 0.820707

*RES
0 *3 *3:12 45.08661
1 *3:9 *3:8 5.404465
2 *3:10 *3:9 0.5
3 *3:12 *3:11 0.5
4 *3:11 *3:10 30.89464
5 *3:7 *3:6 0.2325
6 *3:8 *3:7 0.5
7 *3:8 *3:5 1.333036
8 *3:6 *466:A2 1
9 *3:4 *3:3 5.380358
10 *3:5 *3:4 0.5
11 *3:3 *382:A2 1

*END

*D_NET *6 0.4855758 //LENGTH 5.709 LUMPCC 0 DR

*CONN
*P *6 I *L 0 *C 6.216 0.258
*I *377:A I *L 5.304077 *C 6.216 5.912
*N *6:2 *C 6.216 5.899

*CAP
0 *6 0.2441904
1 *377:A 0.001
2 *6:2 0.2403855

*RES
0 *6 *6:2 10.07232
1 *6:2 *377:A 1

*END

*D_NET *7 1.076063 //LENGTH 13.313 LUMPCC 0 DR

*CONN
*P *7 I *L 0 *C 52.454 29.928
*I *485:A4 I *L 0.554348 *C 46.192 32.360
*I *471:A1 I *L 0.53794 *C 46.025 30.840
*I *480:A3 I *L 0.519105 *C 47.408 34.336
*N *7:4 *C 47.408 34.323
*N *7:5 *C 45.901 30.840
*N *7:6 *C 45.888 30.854
*N *7:7 *C 45.888 32.346
*N *7:8 *C 45.902 32.360
*N *7:9 *C 46.192 32.178
*N *7:10 *C 46.192 32.348
*N *7:11 *C 46.192 32.360
*N *7:12 *C 47.395 32.360
*N *7:13 *C 47.408 32.360
*N *7:14 *C 47.408 29.942
*N *7:15 *C 47.422 29.928

*CAP
0 *7 0.161829
1 *485:A4 0.001
2 *471:A1 0.01528022
3 *480:A3 0.001
4 *7:4 0.07865056
5 *7:5 0.01320482
6 *7:6 0.09717146
7 *7:7 0.09687465
8 *7:8 0.01200746
9 *7:9 0.02170972
10 *7:10 0.01553261
11 *7:11 0.05597986
12 *7:12 0.04160019
13 *7:13 0.1936107
14 *7:14 0.1111552
15 *7:15 0.1594567

*RES
0 *7 *7:15 8.986609
1 *7:4 *480:A3 1
2 *7:14 *7:13 4.31875
3 *7:15 *7:14 0.5
4 *7:13 *7:12 0.5
5 *7:13 *7:4 3.504465
6 *7:12 *7:11 2.147322
7 *7:10 *485:A4 1
8 *7:10 *7:9 0.2825
9 *7:11 *7:10 0.5
10 *7:11 *7:8 0.5187501
11 *7:7 *7:6 2.666071
12 *7:8 *7:7 0.5
13 *7:5 *471:A1 0.2075
14 *7:6 *7:5 1

*END

*D_NET *13 0.4224355 //LENGTH 5.669 LUMPCC 0 DR

*CONN
*I *132:Y O *L 0 *C 10.472 46.192
*P *13 O *L 0.05 *C 10.320 51.542
*N *13:2 *C 10.320 46.952
*N *13:3 *C 10.472 46.952
*N *13:4 *C 10.472 46.206

*CAP
0 *132:Y 0.001
1 *13 0.1649342
2 *13:2 0.1722335
3 *13:3 0.04768595
4 *13:4 0.03658183

*RES
0 *132:Y *13:4 1
1 *13:4 *13:3 1.333036
2 *13:2 *13 8.196428
3 *13:3 *13:2 0.2714286

*END

*D_NET *16 2.865831 //LENGTH 42.305 LUMPCC 0 DR

*CONN
*I *58:Y O *L 0 *C 33.272 26.280
*P *16 O *L 0.05 *C 49.688 51.542
*N *16:2 *C 33.090 27.496
*N *16:3 *C 49.688 50.918
*N *16:4 *C 49.675 50.904
*N *16:5 *C 33.285 50.904
*N *16:6 *C 33.272 50.891
*N *16:7 *C 33.272 27.510
*N *16:8 *C 33.260 27.496
*N *16:9 *C 33.272 27.483
*N *16:10 *C 33.272 26.294

*CAP
0 *58:Y 0.001
1 *16 0.02451959
2 *16:2 0.0141355
3 *16:3 0.02214737
4 *16:4 0.4715894
5 *16:5 0.47159
6 *16:6 0.8532927
7 *16:7 0.8532927
8 *16:8 0.009391611
9 *16:9 0.0731524
10 *16:10 0.07171972

*RES
0 *58:Y *16:10 1
1 *16:10 *16:9 2.123214
2 *16:9 *16:8 0.5
3 *16:8 *16:7 0.5
4 *16:8 *16:2 0.2825
5 *16:7 *16:6 41.75179
6 *16:5 *16:4 29.26607
7 *16:6 *16:5 0.5
8 *16:3 *16 1.115179
9 *16:4 *16:3 0.5

*END

*D_NET *18 0.6202258 //LENGTH 8.209 LUMPCC 0 DR

*CONN
*I *131:Y O *L 0 *C 30.840 6.064
*P *18 O *L 0.05 *C 28.712 0.258
*N *18:2 *C 28.712 5.291
*N *18:3 *C 28.726 5.304
*N *18:4 *C 30.827 5.304
*N *18:5 *C 30.840 5.317
*N *18:6 *C 30.840 6.051

*CAP
0 *131:Y 0.001
1 *18 0.1918697
2 *18:2 0.1894975
3 *18:3 0.08556354
4 *18:4 0.08556354
5 *18:5 0.03408211
6 *18:6 0.03264943

*RES
0 *131:Y *18:6 1
1 *18:6 *18:5 1.308929
2 *18:5 *18:4 0.5
3 *18:4 *18:3 3.751786
4 *18:2 *18 8.986609
5 *18:3 *18:2 0.5

*END

*D_NET *22 4.238246 //LENGTH 66.038 LUMPCC 0 DR

*CONN
*I *65:Y O *L 0 *C 35.704 7.888
*I *66:A I *L 0.582888 *C 37.680 5.912
*P *22 O *L 0.05 *C 0.258 32.968
*N *22:3 *C 2.251 32.968
*N *22:4 *C 2.264 32.955
*N *22:5 *C 2.264 11.702
*N *22:6 *C 2.278 11.688
*N *22:7 *C 36.299 11.688
*N *22:8 *C 36.312 11.675
*N *22:9 *C 37.680 5.926
*N *22:10 *C 37.680 6.203
*N *22:11 *C 37.666 6.216
*N *22:12 *C 36.326 6.216
*N *22:13 *C 36.312 6.230
*N *22:14 *C 36.312 7.736
*N *22:15 *C 36.299 7.736
*N *22:16 *C 35.718 7.736
*N *22:17 *C 35.704 7.750
*N *22:18 *C 35.704 7.887

*CAP
0 *65:Y 0.001
1 *66:A 0.001
2 *22 0.07927464
3 *22:3 0.07690296
4 *22:4 0.6254724
5 *22:5 0.6254729
6 *22:6 1.051542
7 *22:7 1.051542
8 *22:8 0.1567125
9 *22:9 0.01485071
10 *22:10 0.01628339
11 *22:11 0.07759901
12 *22:12 0.07759956
13 *22:13 0.06922103
14 *22:14 0.2283047
15 *22:15 0.03406386
16 *22:16 0.03406331
17 *22:17 0.009386831
18 *22:18 0.007954153

*RES
0 *65:Y *22:18 1
1 *22:12 *22:11 2.394643
2 *22:13 *22:12 0.5
3 *22:10 *22:9 0.4946429
4 *22:11 *22:10 0.5
5 *22:9 *66:A 1
6 *22:15 *22:14 0.5
7 *22:14 *22:13 2.690179
8 *22:14 *22:8 7.033036
9 *22:17 *22:16 0.5
10 *22:16 *22:15 1.0375
11 *22:18 *22:17 0.2455357
12 *22:8 *22:7 0.5
13 *22:7 *22:6 60.75178
14 *22:5 *22:4 37.95179
15 *22:6 *22:5 0.5
16 *22:3 *22 3.558036
17 *22:4 *22:3 0.5

*END

*D_NET *30 1.480038 //LENGTH 19.227 LUMPCC 0 DR

*CONN
*I *59:Y O *L 0 *C 15.792 42.240
*I *60:A I *L 0.582888 *C 10.928 46.040
*P *30 O *L 0.05 *C 6.368 51.542
*N *30:3 *C 6.368 46.358
*N *30:4 *C 6.381 46.344
*N *30:5 *C 10.928 46.344
*N *30:6 *C 10.928 46.041
*N *30:7 *C 10.928 46.027
*N *30:8 *C 10.928 43.014
*N *30:9 *C 10.942 43.000
*N *30:10 *C 15.779 43.000
*N *30:11 *C 15.792 42.986
*N *30:12 *C 15.792 42.241

*CAP
0 *59:Y 0.001
1 *60:A 0.001
2 *30 0.1981545
3 *30:3 0.1957823
4 *30:4 0.1409572
5 *30:5 0.1545296
6 *30:6 0.008827905
7 *30:7 0.1313031
8 *30:8 0.135108
9 *30:9 0.2214965
10 *30:10 0.2214965
11 *30:11 0.03590727
12 *30:12 0.03447459

*RES
0 *59:Y *30:12 1
1 *30:7 *60:A 1
2 *30:7 *30:6 0.5
3 *30:8 *30:7 5.380358
4 *30:9 *30:8 0.5
5 *30:11 *30:10 0.5
6 *30:10 *30:9 8.637501
7 *30:12 *30:11 1.33125
8 *30:6 *30:5 0.5410715
9 *30:3 *30 9.258036
10 *30:4 *30:3 0.5
11 *30:5 *30:4 8.118751

*END

*D_NET *36 0.5177147 //LENGTH 7.297 LUMPCC 0 DR

*CONN
*I *121:Y O *L 0 *C 33.880 6.064
*P *36 O *L 0.05 *C 35.096 0.258
*N *36:2 *C 35.096 0.427
*N *36:3 *C 35.083 0.440
*N *36:4 *C 33.894 0.440
*N *36:5 *C 33.880 0.454
*N *36:6 *C 33.880 6.051

*CAP
0 *121:Y 0.001
1 *36 0.01006471
2 *36:2 0.007692488
3 *36:3 0.03750792
4 *36:4 0.03750792
5 *36:5 0.2126872
6 *36:6 0.2112545

*RES
0 *121:Y *36:6 1
1 *36:6 *36:5 9.994644
2 *36:5 *36:4 0.5
3 *36:4 *36:3 2.123214
4 *36:2 *36 0.3008929
5 *36:3 *36:2 0.5

*END

*D_NET *2552 2.942543 //LENGTH 42.933 LUMPCC 0 DR

*CONN
*I *222:Q O *L 0 *C 13.816 31.144
*I *312:A2 I *L 0.558881 *C 13.664 32.512
*I *442:A4 I *L 0.565045 *C 44.216 37.528
*I *320:A6 I *L 0.639573 *C 45.432 35.552
*I *499:A I *L 0.561607 *C 46.800 37.528
*N *2552:5 *C 46.800 37.346
*N *2552:6 *C 46.800 37.516
*N *2552:7 *C 46.787 37.528
*N *2552:8 *C 45.432 35.566
*N *2552:9 *C 45.432 37.515
*N *2552:10 *C 45.432 37.528
*N *2552:11 *C 44.216 37.346
*N *2552:12 *C 44.216 37.516
*N *2552:13 *C 44.230 37.528
*N *2552:14 *C 44.216 37.515
*N *2552:15 *C 44.216 34.806
*N *2552:16 *C 44.203 34.792
*N *2552:17 *C 17.782 34.792
*N *2552:18 *C 17.768 34.779
*N *2552:19 *C 17.768 33.894
*N *2552:20 *C 17.755 33.880
*N *2552:21 *C 13.678 33.880
*N *2552:22 *C 13.664 33.867
*N *2552:23 *C 13.664 32.512
*N *2552:24 *C 13.664 31.144
*N *2552:25 *C 13.815 31.144

*CAP
0 *222:Q 0.001
1 *312:A2 0.001
2 *442:A4 0.001
3 *320:A6 0.001
4 *499:A 0.001
5 *2552:5 0.01156934
6 *2552:6 0.00539222
7 *2552:7 0.05403475
8 *2552:8 0.09721191
9 *2552:9 0.09864459
10 *2552:10 0.1092663
11 *2552:11 0.01479453
12 *2552:12 0.008617413
13 *2552:13 0.05048763
14 *2552:14 0.1044018
15 *2552:15 0.1044023
16 *2552:16 0.8261976
17 *2552:17 0.8261976
18 *2552:18 0.04216675
19 *2552:19 0.04216623
20 *2552:20 0.1493565
21 *2552:21 0.149356
22 *2552:22 0.05551851
23 *2552:23 0.1135677
24 *2552:24 0.06873973
25 *2552:25 0.005452933

*RES
0 *222:Q *2552:25 1
1 *2552:6 *499:A 1
2 *2552:6 *2552:5 0.2825
3 *2552:7 *2552:6 0.5
4 *2552:9 *2552:8 3.480357
5 *2552:10 *2552:9 0.5
6 *2552:10 *2552:7 2.41875
7 *2552:8 *320:A6 1
8 *2552:12 *442:A4 1
9 *2552:12 *2552:11 0.2825
10 *2552:13 *2552:12 0.5
11 *2552:13 *2552:10 2.147321
12 *2552:25 *2552:24 0.2696429
13 *2552:14 *2552:13 0.5
14 *2552:15 *2552:14 4.8375
15 *2552:16 *2552:15 0.5
16 *2552:18 *2552:17 0.5
17 *2552:17 *2552:16 47.18035
18 *2552:20 *2552:19 0.5
19 *2552:19 *2552:18 1.580357
20 *2552:22 *2552:21 0.5
21 *2552:21 *2552:20 7.280358
22 *2552:23 *312:A2 1
23 *2552:23 *2552:22 2.41875
24 *2552:24 *2552:23 2.442857

*END

*D_NET *2556 6.8196 //LENGTH 64.943 LUMPCC 0 DR

*CONN
*I *430:Y O *L 0 *C 43.608 25.976
*I *376:A I *L 0.582888 *C 23.848 24.152
*I *384:A1 I *L 0.501685 *C 19.288 22.632
*I *391:A1 I *L 0.501685 *C 17.312 15.944
*I *389:A1 I *L 0.501685 *C 17.693 17.464
*I *388:A1 I *L 0.501685 *C 17.312 20.808
*I *387:A1 I *L 0.501685 *C 18.582 24.152
*I *378:A1 I *L 0.501685 *C 22.343 22.632
*I *382:A1 I *L 0.501685 *C 23.225 22.632
*I *385:A1 I *L 0.501685 *C 23.240 17.464
*I *390:A1 I *L 0.501685 *C 23.240 14.120
*I *381:A1 I *L 0.501685 *C 23.240 12.600
*I *386:A1 I *L 0.501685 *C 19.896 12.600
*I *392:A1 I *L 0.501685 *C 17.312 12.600
*I *393:A1 I *L 0.501685 *C 17.541 10.776
*I *380:A1 I *L 0.501685 *C 23.392 15.944
*I *379:A1 I *L 0.501685 *C 20.808 22.632
*I *383:A1 I *L 0.501685 *C 20.200 24.152
*N *2556:18 *C 43.608 25.794
*N *2556:19 *C 20.200 24.139
*N *2556:20 *C 20.200 23.861
*N *2556:21 *C 20.213 23.848
*N *2556:22 *C 23.392 15.958
*N *2556:23 *C 23.392 16.248
*N *2556:24 *C 17.327 10.776
*N *2556:25 *C 17.312 10.790
*N *2556:26 *C 17.312 12.587
*N *2556:27 *C 17.326 12.600
*N *2556:28 *C 19.896 12.418
*N *2556:29 *C 19.896 12.588
*N *2556:30 *C 19.896 12.600
*N *2556:31 *C 23.227 12.600
*N *2556:32 *C 23.240 12.614
*N *2556:33 *C 23.240 14.120
*N *2556:34 *C 23.240 16.248
*N *2556:35 *C 23.240 17.464
*N *2556:36 *C 23.225 22.632
*N *2556:37 *C 23.240 22.619
*N *2556:38 *C 23.239 22.632
*N *2556:39 *C 18.528 24.152
*N *2556:40 *C 18.528 24.139
*N *2556:41 *C 18.528 22.646
*N *2556:42 *C 18.541 22.632
*N *2556:43 *C 17.312 20.794
*N *2556:44 *C 17.479 17.464
*N *2556:45 *C 17.463 17.464
*N *2556:46 *C 17.312 15.958
*N *2556:47 *C 17.312 17.464
*N *2556:48 *C 17.312 20.200
*N *2556:49 *C 17.326 20.200
*N *2556:50 *C 19.274 20.200
*N *2556:51 *C 19.288 20.213
*N *2556:52 *C 19.288 22.619
*N *2556:53 *C 19.288 22.632
*N *2556:54 *C 20.808 22.632
*N *2556:55 *C 20.808 22.646
*N *2556:56 *C 20.808 23.835
*N *2556:57 *C 20.808 23.848
*N *2556:58 *C 23.848 24.139
*N *2556:59 *C 23.848 23.861
*N *2556:60 *C 23.848 23.848
*N *2556:61 *C 25.659 23.848
*N *2556:62 *C 25.672 23.861
*N *2556:63 *C 25.672 25.963
*N *2556:64 *C 25.686 25.976
*N *2556:65 *C 43.595 25.976
*N *2556:66 *C 43.608 25.963

*CAP
0 *430:Y 0.001
1 *376:A 0.001
2 *384:A1 0.001
3 *391:A1 0.001
4 *389:A1 0.01942621
5 *388:A1 0.001
6 *387:A1 0.009652019
7 *378:A1 0.0531337
8 *382:A1 0.001
9 *385:A1 0.001
10 *390:A1 0.001
11 *381:A1 0.001
12 *386:A1 0.001
13 *392:A1 0.001
14 *393:A1 0.02078016
15 *380:A1 0.001
16 *379:A1 0.001
17 *383:A1 0.001
18 *2556:18 0.01921374
19 *2556:19 0.01857653
20 *2556:20 0.0200092
21 *2556:21 0.04522068
22 *2556:22 0.02480367
23 *2556:23 0.03679834
24 *2556:24 0.01870476
25 *2556:25 0.1346869
26 *2556:26 0.1305852
27 *2556:27 0.1091525
28 *2556:28 0.01958227
29 *2556:29 0.01340515
30 *2556:30 0.2675371
31 *2556:31 0.1560124
32 *2556:32 0.09377795
33 *2556:33 0.2325505
34 *2556:34 0.2037111
35 *2556:35 0.3499957
36 *2556:36 0.0493288
37 *2556:37 0.2885025
38 *2556:38 0.1033446
39 *2556:39 0.007576622
40 *2556:40 0.1091391
41 *2556:41 0.1088423
42 *2556:42 0.03412425
43 *2556:43 0.02882533
44 *2556:44 0.01735081
45 *2556:45 0.006764559
46 *2556:46 0.08245738
47 *2556:47 0.2263768
48 *2556:48 0.1615325
49 *2556:49 0.08411016
50 *2556:50 0.08411016
51 *2556:51 0.1423204
52 *2556:52 0.1385155
53 *2556:53 0.1020262
54 *2556:54 0.1712465
55 *2556:55 0.07711194
56 *2556:56 0.08091684
57 *2556:57 0.260379
58 *2556:58 0.03138864
59 *2556:59 0.03282132
60 *2556:60 0.3449358
61 *2556:61 0.1297776
62 *2556:62 0.1171446
63 *2556:63 0.1171446
64 *2556:64 0.8285662
65 *2556:65 0.8285662
66 *2556:66 0.01303662

*RES
0 *430:Y *2556:66 1
1 *2556:62 *2556:61 0.5
2 *2556:61 *2556:60 3.233036
3 *2556:63 *2556:62 3.751786
4 *2556:64 *2556:63 0.5
5 *2556:66 *2556:65 0.5
6 *2556:66 *2556:18 0.2825
7 *2556:65 *2556:64 31.98036
8 *2556:59 *2556:58 0.4946429
9 *2556:60 *2556:59 0.5
10 *2556:60 *2556:57 5.428572
11 *2556:58 *376:A 1
12 *2556:22 *380:A1 1
13 *2556:37 *2556:36 1
14 *2556:37 *2556:35 9.204465
15 *2556:35 *385:A1 1
16 *2556:35 *2556:34 2.171429
17 *2556:33 *390:A1 1
18 *2556:33 *2556:32 2.690179
19 *2556:32 *381:A1 1
20 *2556:32 *2556:31 0.5
21 *2556:38 *2556:37 0.5
22 *2556:56 *2556:55 2.123214
23 *2556:57 *2556:56 0.5
24 *2556:57 *2556:21 1.061607
25 *2556:55 *2556:54 0.5
26 *2556:55 *379:A1 1
27 *2556:54 *2556:53 2.714286
28 *2556:54 *2556:38 4.341072
29 *2556:20 *2556:19 0.4946429
30 *2556:21 *2556:20 0.5
31 *2556:19 *383:A1 1
32 *2556:31 *2556:30 5.947322
33 *2556:29 *386:A1 1
34 *2556:29 *2556:28 0.2825001
35 *2556:30 *2556:29 0.5
36 *2556:30 *2556:27 4.590179
37 *2556:52 *384:A1 1
38 *2556:52 *2556:51 4.294643
39 *2556:53 *2556:52 0.5
40 *2556:53 *2556:42 1.333036
41 *2556:41 *2556:40 2.666071
42 *2556:42 *2556:41 0.5
43 *2556:39 *387:A1 0.09166668
44 *2556:40 *2556:39 1
45 *2556:44 *389:A1 0.4280001
46 *2556:45 *2556:44 1
47 *2556:43 *388:A1 1
48 *2556:51 *2556:50 0.5
49 *2556:50 *2556:49 3.480357
50 *2556:48 *2556:47 4.885715
51 *2556:48 *2556:43 1.061607
52 *2556:49 *2556:48 0.5
53 *2556:46 *391:A1 1
54 *2556:26 *392:A1 1
55 *2556:26 *2556:25 3.208929
56 *2556:27 *2556:26 0.5
57 *2556:24 *393:A1 0.428
58 *2556:25 *2556:24 1
59 *2556:47 *2556:46 2.690179
60 *2556:47 *2556:45 0.2696429
61 *2556:34 *2556:33 3.8
62 *2556:34 *2556:23 0.2714286
63 *2556:23 *2556:22 0.5187501
64 *2556:36 *378:A1 1.7634
65 *2556:36 *382:A1 0.001

*END

*D_NET *2566 0.3190599 //LENGTH 3.066 LUMPCC 0 DR

*CONN
*I *84:Y O *L 0 *C 46.496 7.888
*I *85:A5 I *L 0.542358 *C 45.280 9.408
*N *2566:2 *C 45.280 9.395
*N *2566:3 *C 45.280 8.357
*N *2566:4 *C 45.294 8.344
*N *2566:5 *C 46.483 8.344
*N *2566:6 *C 46.496 8.331
*N *2566:7 *C 46.496 7.902

*CAP
0 *84:Y 0.001
1 *85:A5 0.001
2 *2566:2 0.07220477
3 *2566:3 0.07363745
4 *2566:4 0.0621872
5 *2566:5 0.0621872
6 *2566:6 0.02413796
7 *2566:7 0.02270529

*RES
0 *84:Y *2566:7 1
1 *2566:2 *85:A5 1
2 *2566:3 *2566:2 1.851786
3 *2566:4 *2566:3 0.5
4 *2566:6 *2566:5 0.5
5 *2566:5 *2566:4 2.123214
6 *2566:7 *2566:6 0.7660714

*END

*D_NET *2568 0.48777 //LENGTH 4.848 LUMPCC 0 DR

*CONN
*I *82:Y O *L 0 *C 43.912 7.280
*I *84:A1 I *L 0.494827 *C 45.280 7.432
*I *85:A1 I *L 0.484201 *C 46.040 9.256
*N *2568:3 *C 46.040 9.242
*N *2568:4 *C 46.040 7.750
*N *2568:5 *C 46.027 7.736
*N *2568:6 *C 45.280 7.446
*N *2568:7 *C 45.280 7.723
*N *2568:8 *C 45.280 7.736
*N *2568:9 *C 43.925 7.736
*N *2568:10 *C 43.912 7.723
*N *2568:11 *C 43.912 7.294

*CAP
0 *82:Y 0.001
1 *84:A1 0.001
2 *85:A1 0.001
3 *2568:3 0.09519333
4 *2568:4 0.09662601
5 *2568:5 0.0353465
6 *2568:6 0.02181852
7 *2568:7 0.0232512
8 *2568:8 0.1028783
9 *2568:9 0.06515961
10 *2568:10 0.0229646
11 *2568:11 0.02153193

*RES
0 *82:Y *2568:11 1
1 *2568:4 *2568:3 2.666072
2 *2568:5 *2568:4 0.5
3 *2568:3 *85:A1 1
4 *2568:7 *2568:6 0.4946429
5 *2568:8 *2568:7 0.5
6 *2568:8 *2568:5 1.333036
7 *2568:6 *84:A1 1
8 *2568:10 *2568:9 0.5
9 *2568:9 *2568:8 2.41875
10 *2568:11 *2568:10 0.7660714

*END

*D_NET *2572 0.3118992 //LENGTH 3.375 LUMPCC 0 DR

*CONN
*I *90:Y O *L 0 *C 14.576 45.584
*I *91:A5 I *L 0.542358 *C 17.008 46.192
*N *2572:2 *C 17.008 46.178
*N *2572:3 *C 17.008 45.750
*N *2572:4 *C 16.995 45.736
*N *2572:5 *C 14.590 45.736
*N *2572:6 *C 14.576 45.724
*N *2572:7 *C 14.576 45.584

*CAP
0 *90:Y 0.001
1 *91:A5 0.001
2 *2572:2 0.02690986
3 *2572:3 0.02834254
4 *2572:4 0.1178373
5 *2572:5 0.1178373
6 *2572:6 0.01020244
7 *2572:7 0.008769764

*RES
0 *90:Y *2572:7 1
1 *2572:2 *91:A5 1
2 *2572:3 *2572:2 0.7660714
3 *2572:4 *2572:3 0.5
4 *2572:6 *2572:5 0.5
5 *2572:5 *2572:4 4.294643
6 *2572:7 *2572:6 0.2325

*END

*D_NET *2574 0.944715 //LENGTH 9.504 LUMPCC 0 DR

*CONN
*I *88:Y O *L 0 *C 12.559 42.843
*I *90:A1 I *L 0.494827 *C 15.792 46.040
*I *91:A1 I *L 0.484201 *C 17.768 46.040
*N *2574:3 *C 17.768 46.027
*N *2574:4 *C 17.768 45.446
*N *2574:5 *C 17.755 45.432
*N *2574:6 *C 15.792 46.027
*N *2574:7 *C 15.792 45.446
*N *2574:8 *C 15.792 45.432
*N *2574:9 *C 12.766 45.432
*N *2574:10 *C 12.752 45.419
*N *2574:11 *C 12.752 42.861
*N *2574:12 *C 12.740 42.848

*CAP
0 *88:Y 0.01843037
1 *90:A1 0.001
2 *91:A1 0.001
3 *2574:3 0.04790593
4 *2574:4 0.04933861
5 *2574:5 0.09015569
6 *2574:6 0.0490195
7 *2574:7 0.05045218
8 *2574:8 0.2162897
9 *2574:9 0.1237618
10 *2574:10 0.1403547
11 *2574:11 0.1406515
12 *2574:12 0.01635497

*RES
0 *88:Y *2574:12 0.3008333
1 *2574:4 *2574:3 1.0375
2 *2574:5 *2574:4 0.5
3 *2574:3 *91:A1 1
4 *2574:7 *2574:6 1.0375
5 *2574:8 *2574:7 0.5
6 *2574:8 *2574:5 3.504465
7 *2574:6 *90:A1 1
8 *2574:10 *2574:9 0.5
9 *2574:9 *2574:8 5.404465
10 *2574:12 *2574:11 1
11 *2574:11 *2574:10 4.566072

*END

*D_NET *2576 0.4018946 //LENGTH 4.524 LUMPCC 0 DR

*CONN
*I *93:Y O *L 0 *C 21.720 46.192
*I *94:A1 I *L 0.494827 *C 22.328 46.040
*I *95:A3 I *L 0.539281 *C 24.912 45.736
*N *2576:3 *C 24.912 45.554
*N *2576:4 *C 24.912 45.724
*N *2576:5 *C 24.899 45.736
*N *2576:6 *C 22.328 46.027
*N *2576:7 *C 22.328 45.750
*N *2576:8 *C 22.328 45.736
*N *2576:9 *C 21.733 45.736
*N *2576:10 *C 21.720 45.750
*N *2576:11 *C 21.720 46.178

*CAP
0 *93:Y 0.001
1 *94:A1 0.001
2 *95:A3 0.001
3 *2576:3 0.01801555
4 *2576:4 0.01183844
5 *2576:5 0.1173716
6 *2576:6 0.01875837
7 *2576:7 0.02019105
8 *2576:8 0.1444518
9 *2576:9 0.024708
10 *2576:10 0.02249625
11 *2576:11 0.02106357

*RES
0 *93:Y *2576:11 1
1 *2576:4 *95:A3 1
2 *2576:4 *2576:3 0.2825
3 *2576:5 *2576:4 0.5
4 *2576:7 *2576:6 0.4946429
5 *2576:8 *2576:7 0.5
6 *2576:8 *2576:5 4.590179
7 *2576:6 *94:A1 1
8 *2576:10 *2576:9 0.5
9 *2576:9 *2576:8 1.061607
10 *2576:11 *2576:10 0.7660714

*END

*D_NET *2579 0.7231327 //LENGTH 7.189 LUMPCC 0 DR

*CONN
*I *97:Y O *L 0 *C 19.288 30.688
*I *98:A3 I *L 0.557478 *C 22.480 30.232
*I *99:A3 I *L 0.539281 *C 24.608 31.144
*N *2579:3 *C 24.622 31.144
*N *2579:4 *C 24.760 31.144
*N *2579:5 *C 24.760 30.854
*N *2579:6 *C 24.747 30.840
*N *2579:7 *C 22.480 30.245
*N *2579:8 *C 22.480 30.827
*N *2579:9 *C 22.480 30.840
*N *2579:10 *C 19.302 30.840
*N *2579:11 *C 19.288 30.828
*N *2579:12 *C 19.288 30.688

*CAP
0 *97:Y 0.001
1 *98:A3 0.001
2 *99:A3 0.001
3 *2579:3 0.006711799
4 *2579:4 0.03331324
5 *2579:5 0.02042433
6 *2579:6 0.113921
7 *2579:7 0.04575831
8 *2579:8 0.04719099
9 *2579:9 0.2696624
10 *2579:10 0.1533692
11 *2579:11 0.01560705
12 *2579:12 0.01417438

*RES
0 *97:Y *2579:12 1
1 *2579:5 *2579:4 0.51875
2 *2579:6 *2579:5 0.5
3 *2579:3 *99:A3 1
4 *2579:8 *2579:7 1.0375
5 *2579:9 *2579:8 0.5
6 *2579:9 *2579:6 4.047322
7 *2579:7 *98:A3 1
8 *2579:11 *2579:10 0.5
9 *2579:10 *2579:9 5.675893
10 *2579:12 *2579:11 0.2325
11 *2579:4 *2579:3 0.2473214

*END

*D_NET *2583 0.7188966 //LENGTH 7.036 LUMPCC 0 DR

*CONN
*I *100:Y O *L 0 *C 21.416 32.208
*I *103:A1 I *L 0.484201 *C 24.456 34.184
*I *102:A1 I *L 0.494827 *C 25.064 32.664
*N *2583:3 *C 25.064 32.651
*N *2583:4 *C 25.064 32.070
*N *2583:5 *C 25.050 32.056
*N *2583:6 *C 24.456 34.171
*N *2583:7 *C 24.456 32.070
*N *2583:8 *C 24.456 32.056
*N *2583:9 *C 21.733 32.056
*N *2583:10 *C 21.720 32.056
*N *2583:11 *C 21.720 32.196
*N *2583:12 *C 21.705 32.208

*CAP
0 *100:Y 0.02003216
1 *103:A1 0.001
2 *102:A1 0.001
3 *2583:3 0.03968082
4 *2583:4 0.0411135
5 *2583:5 0.03003481
6 *2583:6 0.1303421
7 *2583:7 0.1317747
8 *2583:8 0.151605
9 *2583:9 0.119198
10 *2583:10 0.01743096
11 *2583:11 0.01772778
12 *2583:12 0.01795676

*RES
0 *100:Y *2583:12 0.5780001
1 *2583:4 *2583:3 1.0375
2 *2583:5 *2583:4 0.5
3 *2583:3 *102:A1 1
4 *2583:7 *2583:6 3.751786
5 *2583:8 *2583:7 0.5
6 *2583:8 *2583:5 1.061607
7 *2583:6 *103:A1 1
8 *2583:10 *2583:9 0.5
9 *2583:9 *2583:8 4.861607
10 *2583:12 *2583:11 1
11 *2583:11 *2583:10 0.2325

*END

*D_NET *2586 1.468534 //LENGTH 12.149 LUMPCC 0 DR

*CONN
*I *95:Y O *L 0 *C 25.659 46.258
*I *79:A3 I *L 0.455637 *C 25.368 34.488
*N *2586:2 *C 25.369 34.488
*N *2586:3 *C 25.520 34.488
*N *2586:4 *C 25.520 46.331

*CAP
0 *95:Y 0.001
1 *79:A3 0.001
2 *2586:2 0.005183413
3 *2586:3 0.737042
4 *2586:4 0.7243084

*RES
0 *95:Y *2586:4 1
1 *2586:2 *79:A3 1
2 *2586:4 *2586:3 21.14732
3 *2586:3 *2586:2 0.2696429

*END

*D_NET *2588 12.69424 //LENGTH 163.421 LUMPCC 0 DR

*CONN
*I *163:Y O *L 0 *C 18.224 7.280
*I *374:CLK I *L 0.694632 *C 17.616 5.152
*I *408:CLK I *L 0.694632 *C 17.768 8.496
*I *225:CLK I *L 0.694632 *C 12.904 8.496
*I *136:CLK I *L 0.695415 *C 10.928 11.536
*I *397:CLK I *L 0.694632 *C 12.752 14.880
*I *234:CLK I *L 0.694632 *C 11.080 14.880
*I *400:CLK I *L 0.694632 *C 13.056 15.184
*I *231:CLK I *L 0.694632 *C 11.232 18.224
*I *404:CLK I *L 0.694632 *C 12.752 18.528
*I *228:CLK I *L 0.694632 *C 11.536 18.528
*I *396:CLK I *L 0.694632 *C 13.056 21.568
*I *232:CLK I *L 0.694632 *C 13.056 5.152
*I *405:CLK I *L 0.694632 *C 18.528 11.536
*I *401:CLK I *L 0.694632 *C 15.488 11.536
*I *409:CLK I *L 0.694632 *C 18.528 14.880
*I *403:CLK I *L 0.694632 *C 18.832 18.224
*I *406:CLK I *L 0.694632 *C 18.984 18.528
*I *394:CLK I *L 0.694632 *C 17.160 25.216
*I *369:CLK I *L 0.694632 *C 17.464 28.256
*I *368:CLK I *L 0.694632 *C 14.728 31.600
*I *224:CLK I *L 0.694632 *C 10.168 35.248
*I *137:CLK I *L 0.695415 *C 10.168 38.288
*I *230:CLK I *L 0.694632 *C 9.560 38.592
*I *361:CLK I *L 0.694632 *C 14.576 38.288
*I *222:CLK I *L 0.694632 *C 10.168 31.600
*I *235:CLK I *L 0.694632 *C 5.608 31.600
*I *229:CLK I *L 0.694632 *C 5.760 34.944
*I *395:CLK I *L 0.694632 *C 13.512 21.872
*I *227:CLK I *L 0.694632 *C 8.800 21.872
*I *233:CLK I *L 0.694632 *C 9.560 28.256
*I *223:CLK I *L 0.694632 *C 9.560 28.560
*I *226:CLK I *L 0.694632 *C 12.296 24.912
*I *375:CLK I *L 0.694632 *C 22.176 5.152
*I *364:CLK I *L 0.694632 *C 26.736 5.152
*I *398:CLK I *L 0.694632 *C 24.563 11.840
*I *365:CLK I *L 0.694632 *C 26.584 8.496
*I *402:CLK I *L 0.694632 *C 26.432 11.536
*I *399:CLK I *L 0.694632 *C 25.368 18.224
*I *407:CLK I *L 0.694632 *C 25.520 21.568
*I *367:CLK I *L 0.694632 *C 25.520 15.184
*N *2588:41 *C 25.520 15.184
*N *2588:42 *C 25.520 15.324
*N *2588:43 *C 25.533 15.336
*N *2588:44 *C 25.520 21.556
*N *2588:45 *C 25.520 21.416
*N *2588:46 *C 25.508 21.416
*N *2588:47 *C 25.368 21.416
*N *2588:48 *C 25.368 21.402
*N *2588:49 *C 25.186 17.768
*N *2588:50 *C 25.368 18.210
*N *2588:51 *C 25.368 17.782
*N *2588:52 *C 25.356 17.768
*N *2588:53 *C 25.368 17.768
*N *2588:54 *C 25.368 15.336
*N *2588:55 *C 25.671 15.336
*N *2588:56 *C 25.686 15.336
*N *2588:57 *C 26.267 15.336
*N *2588:58 *C 26.280 15.323
*N *2588:59 *C 26.432 11.524
*N *2588:60 *C 26.432 11.384
*N *2588:61 *C 26.420 11.384
*N *2588:62 *C 26.280 11.384
*N *2588:63 *C 26.280 11.384
*N *2588:64 *C 26.584 11.384
*N *2588:65 *C 26.402 8.648
*N *2588:66 *C 26.584 8.496
*N *2588:67 *C 26.584 8.636
*N *2588:68 *C 26.572 8.648
*N *2588:69 *C 26.584 8.662
*N *2588:70 *C 26.584 9.864
*N *2588:71 *C 26.571 9.864
*N *2588:72 *C 24.608 11.840
*N *2588:73 *C 24.608 11.828
*N *2588:74 *C 24.608 11.688
*N *2588:75 *C 24.596 11.688
*N *2588:76 *C 24.456 11.688
*N *2588:77 *C 24.456 11.675
*N *2588:78 *C 24.456 9.878
*N *2588:79 *C 24.456 9.864
*N *2588:80 *C 22.341 9.864
*N *2588:81 *C 22.328 9.851
*N *2588:82 *C 26.736 5.139
*N *2588:83 *C 26.736 5.000
*N *2588:84 *C 26.723 5.000
*N *2588:85 *C 22.176 5.139
*N *2588:86 *C 22.176 5.000
*N *2588:87 *C 22.189 5.000
*N *2588:88 *C 22.341 5.000
*N *2588:89 *C 22.328 5.014
*N *2588:90 *C 22.328 7.736
*N *2588:91 *C 22.315 7.736
*N *2588:92 *C 12.114 24.760
*N *2588:93 *C 12.296 24.899
*N *2588:94 *C 12.296 24.760
*N *2588:95 *C 12.284 24.760
*N *2588:96 *C 12.296 24.747
*N *2588:97 *C 9.560 28.548
*N *2588:98 *C 9.560 28.269
*N *2588:99 *C 9.560 28.408
*N *2588:100 *C 9.560 28.407
*N *2588:101 *C 9.560 28.257
*N *2588:102 *C 9.560 28.242
*N *2588:103 *C 8.800 21.872
*N *2588:104 *C 8.800 22.012
*N *2588:105 *C 8.814 22.024
*N *2588:106 *C 9.546 22.024
*N *2588:107 *C 9.560 22.038
*N *2588:108 *C 9.560 23.240
*N *2588:109 *C 9.574 23.240
*N *2588:110 *C 12.283 23.240
*N *2588:111 *C 12.296 23.240
*N *2588:112 *C 12.296 21.733
*N *2588:113 *C 12.309 21.720
*N *2588:114 *C 13.512 21.860
*N *2588:115 *C 13.512 21.720
*N *2588:116 *C 13.512 21.720
*N *2588:117 *C 5.760 34.931
*N *2588:118 *C 5.760 34.792
*N *2588:119 *C 5.748 34.792
*N *2588:120 *C 5.608 34.792
*N *2588:121 *C 5.608 34.779
*N *2588:122 *C 5.608 31.462
*N *2588:123 *C 5.608 31.588
*N *2588:124 *C 5.608 31.448
*N *2588:125 *C 5.622 31.448
*N *2588:126 *C 10.168 31.588
*N *2588:127 *C 10.168 31.448
*N *2588:128 *C 10.168 31.448
*N *2588:129 *C 14.576 38.276
*N *2588:130 *C 14.576 38.136
*N *2588:131 *C 14.562 38.136
*N *2588:132 *C 13.526 38.136
*N *2588:133 *C 13.512 38.123
*N *2588:134 *C 9.560 38.580
*N *2588:135 *C 9.560 38.440
*N *2588:136 *C 9.574 38.440
*N *2588:137 *C 10.168 38.440
*N *2588:138 *C 10.168 38.106
*N *2588:139 *C 10.168 38.276
*N *2588:140 *C 10.168 38.289
*N *2588:141 *C 10.168 38.275
*N *2588:142 *C 9.986 35.400
*N *2588:143 *C 10.168 35.248
*N *2588:144 *C 10.168 35.388
*N *2588:145 *C 10.155 35.400
*N *2588:146 *C 10.168 35.413
*N *2588:147 *C 10.168 36.616
*N *2588:148 *C 10.181 36.616
*N *2588:149 *C 13.498 36.616
*N *2588:150 *C 13.512 36.616
*N *2588:151 *C 13.512 31.462
*N *2588:152 *C 13.512 31.448
*N *2588:153 *C 14.728 31.588
*N *2588:154 *C 14.728 31.448
*N *2588:155 *C 14.728 31.448
*N *2588:156 *C 17.146 31.448
*N *2588:157 *C 17.160 31.434
*N *2588:158 *C 17.464 28.244
*N *2588:159 *C 17.464 28.104
*N *2588:160 *C 17.451 28.104
*N *2588:161 *C 17.174 28.104
*N *2588:162 *C 17.160 28.104
*N *2588:163 *C 16.978 25.216
*N *2588:164 *C 17.160 25.034
*N *2588:165 *C 17.160 25.204
*N *2588:166 *C 17.148 25.216
*N *2588:167 *C 17.160 25.216
*N *2588:168 *C 17.160 21.733
*N *2588:169 *C 17.160 21.720
*N *2588:170 *C 18.971 21.720
*N *2588:171 *C 18.984 21.707
*N *2588:172 *C 18.802 18.528
*N *2588:173 *C 18.984 18.346
*N *2588:174 *C 18.984 18.515
*N *2588:175 *C 18.972 18.528
*N *2588:176 *C 18.984 18.528
*N *2588:177 *C 18.832 18.210
*N *2588:178 *C 18.832 17.782
*N *2588:179 *C 18.832 17.768
*N *2588:180 *C 18.972 17.768
*N *2588:181 *C 18.984 17.768
*N *2588:182 *C 18.528 14.868
*N *2588:183 *C 18.528 14.728
*N *2588:184 *C 18.541 14.728
*N *2588:185 *C 18.971 14.728
*N *2588:186 *C 18.984 14.728
*N *2588:187 *C 15.488 11.524
*N *2588:188 *C 15.488 11.384
*N *2588:189 *C 15.502 11.384
*N *2588:190 *C 18.528 11.524
*N *2588:191 *C 18.528 11.384
*N *2588:192 *C 18.528 11.384
*N *2588:193 *C 18.971 11.384
*N *2588:194 *C 18.984 11.384
*N *2588:195 *C 18.984 7.750
*N *2588:196 *C 18.984 7.736
*N *2588:197 *C 18.984 7.432
*N *2588:198 *C 13.056 5.152
*N *2588:199 *C 13.056 5.292
*N *2588:200 *C 13.056 5.304
*N *2588:201 *C 13.196 5.304
*N *2588:202 *C 13.208 5.317
*N *2588:203 *C 13.056 21.556
*N *2588:204 *C 13.056 21.416
*N *2588:205 *C 13.043 21.416
*N *2588:206 *C 12.904 21.416
*N *2588:207 *C 12.904 21.402
*N *2588:208 *C 11.536 18.515
*N *2588:209 *C 11.536 18.376
*N *2588:210 *C 11.550 18.376
*N *2588:211 *C 12.752 18.515
*N *2588:212 *C 12.752 18.376
*N *2588:213 *C 12.764 18.376
*N *2588:214 *C 12.892 18.376
*N *2588:215 *C 12.904 18.376
*N *2588:216 *C 11.232 18.210
*N *2588:217 *C 11.232 17.782
*N *2588:218 *C 11.245 17.768
*N *2588:219 *C 12.891 17.768
*N *2588:220 *C 12.904 17.768
*N *2588:221 *C 13.056 15.184
*N *2588:222 *C 13.056 15.324
*N *2588:223 *C 13.043 15.336
*N *2588:224 *C 12.904 15.336
*N *2588:225 *C 12.904 15.336
*N *2588:226 *C 11.080 14.868
*N *2588:227 *C 11.080 14.728
*N *2588:228 *C 11.094 14.728
*N *2588:229 *C 12.752 14.868
*N *2588:230 *C 12.752 14.728
*N *2588:231 *C 12.764 14.728
*N *2588:232 *C 12.892 14.728
*N *2588:233 *C 12.904 14.728
*N *2588:234 *C 10.928 11.524
*N *2588:235 *C 10.928 11.384
*N *2588:236 *C 10.942 11.384
*N *2588:237 *C 12.891 11.384
*N *2588:238 *C 12.904 11.384
*N *2588:239 *C 12.722 8.496
*N *2588:240 *C 12.904 8.314
*N *2588:241 *C 12.904 8.484
*N *2588:242 *C 12.892 8.496
*N *2588:243 *C 12.904 8.496
*N *2588:244 *C 12.904 7.432
*N *2588:245 *C 13.208 7.419
*N *2588:246 *C 13.222 7.432
*N *2588:247 *C 17.586 8.344
*N *2588:248 *C 17.768 8.484
*N *2588:249 *C 17.768 8.344
*N *2588:250 *C 17.756 8.344
*N *2588:251 *C 17.768 8.331
*N *2588:252 *C 17.768 7.432
*N *2588:253 *C 17.616 5.152
*N *2588:254 *C 17.616 5.292
*N *2588:255 *C 17.604 5.304
*N *2588:256 *C 17.464 5.304
*N *2588:257 *C 17.464 5.317
*N *2588:258 *C 17.464 7.432
*N *2588:259 *C 17.464 7.432
*N *2588:260 *C 18.224 7.432
*N *2588:261 *C 18.224 7.420
*N *2588:262 *C 18.224 7.280

*CAP
0 *163:Y 0.001
1 *374:CLK 0.001
2 *408:CLK 0.001
3 *225:CLK 0.001
4 *136:CLK 0.001
5 *397:CLK 0.001
6 *234:CLK 0.001
7 *400:CLK 0.001
8 *231:CLK 0.001
9 *404:CLK 0.001
10 *228:CLK 0.001
11 *396:CLK 0.001
12 *232:CLK 0.001
13 *405:CLK 0.001
14 *401:CLK 0.001
15 *409:CLK 0.001
16 *403:CLK 0.001
17 *406:CLK 0.001
18 *394:CLK 0.001
19 *369:CLK 0.001
20 *368:CLK 0.001
21 *224:CLK 0.001
22 *137:CLK 0.001
23 *230:CLK 0.001
24 *361:CLK 0.001
25 *222:CLK 0.001
26 *235:CLK 0.001
27 *229:CLK 0.001
28 *395:CLK 0.001
29 *227:CLK 0.001
30 *233:CLK 0.001
31 *223:CLK 0.001
32 *226:CLK 0.001
33 *375:CLK 0.001
34 *364:CLK 0.001
35 *398:CLK 0.01189143
36 *365:CLK 0.001
37 *402:CLK 0.001
38 *399:CLK 0.001
39 *407:CLK 0.001
40 *367:CLK 0.001
41 *2588:41 0.008017443
42 *2588:42 0.009450121
43 *2588:43 0.009167301
44 *2588:44 0.008680194
45 *2588:45 0.01011287
46 *2588:46 0.009791443
47 *2588:47 0.009791989
48 *2588:48 0.1430959
49 *2588:49 0.01587478
50 *2588:50 0.02162592
51 *2588:51 0.0230586
52 *2588:52 0.01113089
53 *2588:53 0.2334329
54 *2588:54 0.1033899
55 *2588:55 0.01068119
56 *2588:56 0.04084742
57 *2588:57 0.02930791
58 *2588:58 0.1617318
59 *2588:59 0.01323714
60 *2588:60 0.01466981
61 *2588:61 0.01097721
62 *2588:62 0.01097775
63 *2588:63 0.1770521
64 *2588:64 0.08084445
65 *2588:65 0.01268237
66 *2588:66 0.008789601
67 *2588:67 0.01022228
68 *2588:68 0.007938479
69 *2588:69 0.05255144
70 *2588:70 0.1180756
71 *2588:71 0.1048102
72 *2588:72 0.009816037
73 *2588:73 0.01450505
74 *2588:74 0.01420823
75 *2588:75 0.01013562
76 *2588:76 0.01013617
77 *2588:77 0.08148017
78 *2588:78 0.08148017
79 *2588:79 0.1989131
80 *2588:80 0.09173129
81 *2588:81 0.07492045
82 *2588:82 0.01010996
83 *2588:83 0.01154264
84 *2588:84 0.171157
85 *2588:85 0.0131207
86 *2588:86 0.01455337
87 *2588:87 0.00754884
88 *2588:88 0.1810787
89 *2588:89 0.1015643
90 *2588:90 0.1788564
91 *2588:91 0.13428
92 *2588:92 0.01213299
93 *2588:93 0.01322168
94 *2588:94 0.01465436
95 *2588:95 0.007389099
96 *2588:96 0.05533698
97 *2588:97 0.005422
98 *2588:98 0.005422
99 *2588:99 0.01608157
100 *2588:100 0.005269608
101 *2588:101 0.005270154
102 *2588:102 0.1821128
103 *2588:103 0.01140386
104 *2588:104 0.01283654
105 *2588:105 0.03297692
106 *2588:106 0.03297746
107 *2588:107 0.04531841
108 *2588:108 0.2298028
109 *2588:109 0.1119213
110 *2588:110 0.1119213
111 *2588:111 0.1150816
112 *2588:112 0.05737295
113 *2588:113 0.04630741
114 *2588:114 0.008406266
115 *2588:115 0.009838944
116 *2588:116 0.1859653
117 *2588:117 0.01055952
118 *2588:118 0.01199219
119 *2588:119 0.007945579
120 *2588:120 0.007946124
121 *2588:121 0.10622
122 *2588:122 0.10622
123 *2588:123 0.009398197
124 *2588:124 0.01083088
125 *2588:125 0.2088036
126 *2588:126 0.01115125
127 *2588:127 0.01258392
128 *2588:128 0.3385104
129 *2588:129 0.008686283
130 *2588:130 0.01011896
131 *2588:131 0.0445081
132 *2588:132 0.04450865
133 *2588:133 0.05391336
134 *2588:134 0.008175372
135 *2588:135 0.009608051
136 *2588:136 0.03094665
137 *2588:137 0.04110949
138 *2588:138 0.01896791
139 *2588:139 0.01279079
140 *2588:140 0.003046734
141 *2588:141 0.06139403
142 *2588:142 0.0120744
143 *2588:143 0.01348013
144 *2588:144 0.0149128
145 *2588:145 0.007330514
146 *2588:146 0.04576387
147 *2588:147 0.1095296
148 *2588:148 0.147804
149 *2588:149 0.147804
150 *2588:150 0.2391373
151 *2588:151 0.1828523
152 *2588:152 0.1708167
153 *2588:153 0.01029645
154 *2588:154 0.01172913
155 *2588:155 0.1571018
156 *2588:156 0.1112491
157 *2588:157 0.1313082
158 *2588:158 0.008369379
159 *2588:159 0.009802057
160 *2588:160 0.01594661
161 *2588:161 0.01594716
162 *2588:162 0.2469087
163 *2588:163 0.01327051
164 *2588:164 0.01507655
165 *2588:165 0.008899434
166 *2588:166 0.008526617
167 *2588:167 0.2577758
168 *2588:168 0.1421753
169 *2588:169 0.2163595
170 *2588:170 0.0767011
171 *2588:171 0.1165468
172 *2588:172 0.01325846
173 *2588:173 0.01585294
174 *2588:174 0.009675829
175 *2588:175 0.008514573
176 *2588:176 0.1454356
177 *2588:177 0.03381763
178 *2588:178 0.03525031
179 *2588:179 0.01182941
180 *2588:180 0.01182995
181 *2588:181 0.1344944
182 *2588:182 0.01375168
183 *2588:183 0.01518435
184 *2588:184 0.02641329
185 *2588:185 0.02641384
186 *2588:186 0.235301
187 *2588:187 0.008029921
188 *2588:188 0.0094626
189 *2588:189 0.1372257
190 *2588:190 0.01379206
191 *2588:191 0.01522474
192 *2588:192 0.1605227
193 *2588:193 0.02092523
194 *2588:194 0.2613235
195 *2588:195 0.131628
196 *2588:196 0.1486918
197 *2588:197 0.04555384
198 *2588:198 0.008265817
199 *2588:199 0.009698495
200 *2588:200 0.008782332
201 *2588:201 0.008782879
202 *2588:202 0.07516465
203 *2588:203 0.009057836
204 *2588:204 0.01049051
205 *2588:205 0.01015208
206 *2588:206 0.01015263
207 *2588:207 0.101435
208 *2588:208 0.008632535
209 *2588:209 0.01006521
210 *2588:210 0.0540826
211 *2588:211 0.008200417
212 *2588:212 0.009633095
213 *2588:213 0.06552622
214 *2588:214 0.009071947
215 *2588:215 0.1223635
216 *2588:216 0.02084799
217 *2588:217 0.02228067
218 *2588:218 0.08683703
219 *2588:219 0.08683758
220 *2588:220 0.1034361
221 *2588:221 0.008218204
222 *2588:222 0.009650883
223 *2588:223 0.00956433
224 *2588:224 0.009564876
225 *2588:225 0.1043274
226 *2588:226 0.00806412
227 *2588:227 0.009496798
228 *2588:228 0.0806427
229 *2588:229 0.008260034
230 *2588:230 0.009692713
231 *2588:231 0.09402855
232 *2588:232 0.01101418
233 *2588:233 0.1344569
234 *2588:234 0.007574175
235 *2588:235 0.009006853
236 *2588:236 0.08447336
237 *2588:237 0.08447391
238 *2588:238 0.2086829
239 *2588:239 0.01752103
240 *2588:240 0.01384257
241 *2588:241 0.007665459
242 *2588:242 0.01277714
243 *2588:243 0.1342556
244 *2588:244 0.05284948
245 *2588:245 0.08743264
246 *2588:246 0.159425
247 *2588:247 0.01186215
248 *2588:248 0.01103837
249 *2588:249 0.01247104
250 *2588:250 0.00711826
251 *2588:251 0.04045605
252 *2588:252 0.05713309
253 *2588:253 0.00895593
254 *2588:254 0.01038861
255 *2588:255 0.008352807
256 *2588:256 0.008353353
257 *2588:257 0.085202
258 *2588:258 0.09950737
259 *2588:259 0.1894105
260 *2588:260 0.05875531
261 *2588:261 0.01279368
262 *2588:262 0.011361

*RES
0 *163:Y *2588:262 1
1 *2588:68 *2588:67 0.5
2 *2588:68 *2588:65 0.2825
3 *2588:69 *2588:68 0.5
4 *2588:67 *2588:66 0.2325
5 *2588:66 *365:CLK 1
6 *2588:62 *2588:61 0.2325
7 *2588:63 *2588:62 0.5
8 *2588:63 *2588:58 7.033036
9 *2588:60 *2588:59 0.2325
10 *2588:61 *2588:60 0.5
11 *2588:59 *402:CLK 1
12 *2588:57 *2588:56 1.0375
13 *2588:58 *2588:57 0.5
14 *2588:42 *2588:41 0.2325
15 *2588:43 *2588:42 0.5
16 *2588:41 *367:CLK 1
17 *2588:56 *2588:55 0.5
18 *2588:56 *2588:43 0.255
19 *2588:55 *2588:54 0.5410715
20 *2588:47 *2588:46 0.2325
21 *2588:48 *2588:47 0.5
22 *2588:45 *2588:44 0.2325
23 *2588:46 *2588:45 0.5
24 *2588:44 *407:CLK 1
25 *2588:52 *2588:51 0.5
26 *2588:52 *2588:49 0.2825
27 *2588:53 *2588:52 0.5
28 *2588:53 *2588:48 6.490179
29 *2588:51 *2588:50 0.7660714
30 *2588:50 *399:CLK 1
31 *2588:71 *2588:70 0.5
32 *2588:70 *2588:69 2.147322
33 *2588:70 *2588:64 2.714286
34 *2588:79 *2588:78 0.5
35 *2588:79 *2588:71 3.775893
36 *2588:78 *2588:77 3.208929
37 *2588:76 *2588:75 0.2325
38 *2588:77 *2588:76 0.5
39 *2588:74 *2588:73 0.2325
40 *2588:75 *2588:74 0.5
41 *2588:72 *398:CLK 0.09166668
42 *2588:73 *2588:72 1
43 *2588:83 *2588:82 0.2325
44 *2588:84 *2588:83 0.5
45 *2588:82 *364:CLK 1
46 *2588:80 *2588:79 3.775893
47 *2588:81 *2588:80 0.5
48 *2588:88 *2588:87 0.255
49 *2588:88 *2588:84 7.823215
50 *2588:89 *2588:88 0.5
51 *2588:86 *2588:85 0.2325
52 *2588:87 *2588:86 0.5
53 *2588:85 *375:CLK 1
54 *2588:91 *2588:90 0.5
55 *2588:90 *2588:89 4.861607
56 *2588:90 *2588:81 3.775893
57 *2588:196 *2588:195 0.5
58 *2588:196 *2588:91 5.947322
59 *2588:195 *2588:194 6.49018
60 *2588:175 *2588:174 0.5
61 *2588:175 *2588:172 0.2825
62 *2588:176 *2588:175 0.5
63 *2588:176 *2588:171 5.675893
64 *2588:174 *406:CLK 1
65 *2588:174 *2588:173 0.2825
66 *2588:180 *2588:179 0.2325
67 *2588:181 *2588:180 0.5
68 *2588:181 *2588:176 1.357143
69 *2588:178 *2588:177 0.7660714
70 *2588:179 *2588:178 0.5
71 *2588:177 *403:CLK 1
72 *2588:193 *2588:192 0.7901786
73 *2588:194 *2588:193 0.5
74 *2588:194 *2588:186 5.971429
75 *2588:185 *2588:184 0.7660714
76 *2588:186 *2588:185 0.5
77 *2588:186 *2588:181 5.428572
78 *2588:183 *2588:182 0.2325
79 *2588:184 *2588:183 0.5
80 *2588:182 *409:CLK 1
81 *2588:191 *2588:190 0.2325
82 *2588:192 *2588:191 0.5
83 *2588:192 *2588:189 5.404464
84 *2588:190 *405:CLK 1
85 *2588:261 *2588:260 0.5
86 *2588:260 *2588:259 1.357143
87 *2588:260 *2588:197 1.357143
88 *2588:262 *2588:261 0.2325
89 *2588:250 *2588:249 0.5
90 *2588:250 *2588:247 0.2825
91 *2588:251 *2588:250 0.5
92 *2588:249 *2588:248 0.2325
93 *2588:248 *408:CLK 1
94 *2588:259 *2588:258 0.5
95 *2588:259 *2588:246 7.575893
96 *2588:258 *2588:257 3.775893
97 *2588:258 *2588:252 0.5428572
98 *2588:256 *2588:255 0.2325
99 *2588:257 *2588:256 0.5
100 *2588:254 *2588:253 0.2325
101 *2588:255 *2588:254 0.5
102 *2588:253 *374:CLK 1
103 *2588:170 *2588:169 3.233036
104 *2588:171 *2588:170 0.5
105 *2588:161 *2588:160 0.4946429
106 *2588:162 *2588:161 0.5
107 *2588:162 *2588:157 5.947322
108 *2588:159 *2588:158 0.2325
109 *2588:160 *2588:159 0.5
110 *2588:158 *369:CLK 1
111 *2588:169 *2588:168 0.5
112 *2588:169 *2588:116 6.514286
113 *2588:168 *2588:167 6.21875
114 *2588:166 *2588:165 0.5
115 *2588:166 *2588:163 0.2825
116 *2588:167 *2588:166 0.5
117 *2588:167 *2588:162 5.157143
118 *2588:165 *394:CLK 1
119 *2588:165 *2588:164 0.2825
120 *2588:188 *2588:187 0.2325
121 *2588:189 *2588:188 0.5
122 *2588:187 *401:CLK 1
123 *2588:156 *2588:155 4.31875
124 *2588:157 *2588:156 0.5
125 *2588:154 *2588:153 0.2325
126 *2588:155 *2588:154 0.5
127 *2588:155 *2588:152 2.171429
128 *2588:153 *368:CLK 1
129 *2588:132 *2588:131 1.851786
130 *2588:133 *2588:132 0.5
131 *2588:130 *2588:129 0.2325
132 *2588:131 *2588:130 0.5
133 *2588:129 *361:CLK 1
134 *2588:152 *2588:151 0.5
135 *2588:152 *2588:128 5.971429
136 *2588:151 *2588:150 9.204465
137 *2588:115 *2588:114 0.2325
138 *2588:116 *2588:115 0.5
139 *2588:116 *2588:113 2.147322
140 *2588:114 *395:CLK 1
141 *2588:246 *2588:245 0.5
142 *2588:245 *2588:244 0.5428572
143 *2588:245 *2588:202 3.751786
144 *2588:201 *2588:200 0.2325
145 *2588:202 *2588:201 0.5
146 *2588:199 *2588:198 0.2325
147 *2588:200 *2588:199 0.5
148 *2588:198 *232:CLK 1
149 *2588:206 *2588:205 0.2325
150 *2588:207 *2588:206 0.5
151 *2588:204 *2588:203 0.2325
152 *2588:205 *2588:204 0.5
153 *2588:203 *396:CLK 1
154 *2588:224 *2588:223 0.2325
155 *2588:225 *2588:224 0.5
156 *2588:225 *2588:220 4.342857
157 *2588:222 *2588:221 0.2325
158 *2588:223 *2588:222 0.5
159 *2588:221 *400:CLK 1
160 *2588:214 *2588:213 0.2116667
161 *2588:215 *2588:214 0.5
162 *2588:215 *2588:207 5.404464
163 *2588:232 *2588:231 0.2116667
164 *2588:233 *2588:232 0.5
165 *2588:233 *2588:225 1.085714
166 *2588:212 *2588:211 0.2325
167 *2588:213 *2588:212 0.5
168 *2588:213 *2588:210 2.169643
169 *2588:211 *404:CLK 1
170 *2588:230 *2588:229 0.2325
171 *2588:231 *2588:230 0.5
172 *2588:231 *2588:228 2.983929
173 *2588:229 *397:CLK 1
174 *2588:242 *2588:241 0.5
175 *2588:242 *2588:239 0.2825
176 *2588:243 *2588:242 0.5
177 *2588:243 *2588:238 5.157143
178 *2588:241 *225:CLK 1
179 *2588:241 *2588:240 0.2825
180 *2588:113 *2588:112 0.5
181 *2588:112 *2588:111 2.690179
182 *2588:95 *2588:94 0.5
183 *2588:95 *2588:92 0.2825
184 *2588:96 *2588:95 0.5
185 *2588:94 *2588:93 0.2325
186 *2588:93 *226:CLK 1
187 *2588:209 *2588:208 0.2325
188 *2588:210 *2588:209 0.5
189 *2588:208 *228:CLK 1
190 *2588:219 *2588:218 2.9375
191 *2588:220 *2588:219 0.5
192 *2588:220 *2588:215 1.085714
193 *2588:217 *2588:216 0.7660714
194 *2588:218 *2588:217 0.5
195 *2588:216 *231:CLK 1
196 *2588:227 *2588:226 0.2325
197 *2588:228 *2588:227 0.5
198 *2588:226 *234:CLK 1
199 *2588:237 *2588:236 3.480357
200 *2588:238 *2588:237 0.5
201 *2588:238 *2588:233 5.971429
202 *2588:235 *2588:234 0.2325
203 *2588:236 *2588:235 0.5
204 *2588:234 *136:CLK 1
205 *2588:139 *137:CLK 1
206 *2588:139 *2588:138 0.2825
207 *2588:140 *2588:139 0.5
208 *2588:140 *2588:137 0.2696429
209 *2588:141 *2588:140 0.5
210 *2588:149 *2588:148 5.923214
211 *2588:150 *2588:149 0.5
212 *2588:150 *2588:133 2.690179
213 *2588:148 *2588:147 0.5
214 *2588:147 *2588:146 2.147322
215 *2588:147 *2588:141 2.961607
216 *2588:127 *2588:126 0.2325
217 *2588:128 *2588:127 0.5
218 *2588:128 *2588:125 8.118751
219 *2588:126 *222:CLK 1
220 *2588:145 *2588:144 0.5
221 *2588:145 *2588:142 0.2825
222 *2588:146 *2588:145 0.5
223 *2588:144 *2588:143 0.2325
224 *2588:143 *224:CLK 1
225 *2588:135 *2588:134 0.2325
226 *2588:136 *2588:135 0.5
227 *2588:134 *230:CLK 1
228 *2588:97 *223:CLK 1
229 *2588:98 *233:CLK 1
230 *2588:99 *2588:98 0.2325
231 *2588:99 *2588:97 0.2325
232 *2588:100 *2588:99 0.5
233 *2588:101 *2588:100 0.2678572
234 *2588:102 *2588:101 0.5
235 *2588:110 *2588:109 4.837501
236 *2588:111 *2588:110 0.5
237 *2588:111 *2588:96 2.690179
238 *2588:109 *2588:108 0.5
239 *2588:108 *2588:107 2.147322
240 *2588:108 *2588:102 8.933037
241 *2588:106 *2588:105 1.308929
242 *2588:107 *2588:106 0.5
243 *2588:104 *2588:103 0.2325
244 *2588:105 *2588:104 0.5
245 *2588:103 *227:CLK 1
246 *2588:124 *2588:123 0.2325
247 *2588:125 *2588:124 0.5
248 *2588:125 *2588:122 0.5
249 *2588:123 *235:CLK 1
250 *2588:122 *2588:121 5.923215
251 *2588:120 *2588:119 0.2325
252 *2588:121 *2588:120 0.5
253 *2588:118 *2588:117 0.2325
254 *2588:119 *2588:118 0.5
255 *2588:117 *229:CLK 1
256 *2588:137 *2588:136 1.061607
257 *2588:197 *2588:196 0.5428572
258 *2588:244 *2588:243 1.9
259 *2588:252 *2588:251 1.604464
260 *2588:54 *2588:53 4.342857
261 *2588:64 *2588:63 0.5428572

*END

*D_NET *2618 2.558044 //LENGTH 25.362 LUMPCC 0 DR

*CONN
*I *407:Q O *L 0 *C 29.168 21.112
*I *353:A2 I *L 0.501039 *C 19.288 27.800
*I *49:A2 I *L 0.52073 *C 19.288 29.472
*I *383:A2 I *L 0.501039 *C 19.949 24.456
*I *382:A4 I *L 0.569168 *C 23.544 22.784
*I *280:A2 I *L 0.466516 *C 29.447 27.521
*N *2618:6 *C 29.031 27.496
*N *2618:7 *C 29.016 27.483
*N *2618:8 *C 23.543 22.784
*N *2618:9 *C 19.288 29.471
*N *2618:10 *C 19.288 27.800
*N *2618:11 *C 19.288 27.206
*N *2618:12 *C 19.302 27.192
*N *2618:13 *C 19.883 27.192
*N *2618:14 *C 19.896 27.178
*N *2618:15 *C 19.896 24.470
*N *2618:16 *C 19.896 24.456
*N *2618:17 *C 19.949 24.456
*N *2618:18 *C 19.972 24.456
*N *2618:19 *C 20.048 24.456
*N *2618:20 *C 20.048 24.470
*N *2618:21 *C 20.048 24.747
*N *2618:22 *C 20.062 24.760
*N *2618:23 *C 23.379 24.760
*N *2618:24 *C 23.392 24.747
*N *2618:25 *C 23.392 22.784
*N *2618:26 *C 23.392 22.646
*N *2618:27 *C 23.405 22.632
*N *2618:28 *C 29.003 22.632
*N *2618:29 *C 29.016 22.632
*N *2618:30 *C 29.168 22.632
*N *2618:31 *C 29.168 21.126

*CAP
0 *407:Q 0.001
1 *353:A2 0.001
2 *49:A2 0.001
3 *383:A2 0.001
4 *382:A4 0.001
5 *280:A2 0.03162789
6 *2618:6 0.02955249
7 *2618:7 0.2290127
8 *2618:8 0.005414371
9 *2618:9 0.1256084
10 *2618:10 0.1751354
11 *2618:11 0.04715478
12 *2618:12 0.03774901
13 *2618:13 0.03774901
14 *2618:14 0.1427389
15 *2618:15 0.1430358
16 *2618:16 0.003874474
17 *2618:17 0.005949872
18 *2618:18 0.001
19 *2618:19 0.001
20 *2618:20 0.0231683
21 *2618:21 0.02460098
22 *2618:22 0.1621734
23 *2618:23 0.1621734
24 *2618:24 0.1117608
25 *2618:25 0.1345527
26 *2618:26 0.008828143
27 *2618:27 0.252897
28 *2618:28 0.252897
29 *2618:29 0.2375784
30 *2618:30 0.089239
31 *2618:31 0.07657152

*RES
0 *407:Q *2618:31 1
1 *2618:31 *2618:30 2.690179
2 *2618:6 *280:A2 0.8320001
3 *2618:7 *2618:6 1
4 *2618:8 *382:A4 1
5 *2618:29 *2618:28 0.5
6 *2618:29 *2618:7 8.661608
7 *2618:28 *2618:27 9.994644
8 *2618:26 *2618:25 0.2473214
9 *2618:27 *2618:26 0.5
10 *2618:24 *2618:23 0.5
11 *2618:23 *2618:22 5.923214
12 *2618:21 *2618:20 0.4946429
13 *2618:22 *2618:21 0.5
14 *2618:20 *2618:19 1
15 *2618:9 *49:A2 1
16 *2618:10 *353:A2 1
17 *2618:10 *2618:9 2.983929
18 *2618:11 *2618:10 1.061607
19 *2618:12 *2618:11 0.5
20 *2618:14 *2618:13 0.5
21 *2618:13 *2618:12 1.0375
22 *2618:16 *2618:15 1
23 *2618:15 *2618:14 4.837501
24 *2618:25 *2618:24 3.504464
25 *2618:25 *2618:8 0.2696429
26 *2618:30 *2618:29 0.2714286
27 *2618:19 *2618:18 0.06909091
28 *2618:18 *2618:17 0.02118182
29 *2618:17 *2618:16 0.08783333
30 *2618:17 *383:A2 0.001

*END

*D_NET *2622 2.949229 //LENGTH 28.697 LUMPCC 0 DR

*CONN
*I *399:Q O *L 0 *C 29.016 17.768
*I *385:A4 I *L 0.569168 *C 23.544 17.312
*I *295:A2 I *L 0.52073 *C 41.024 17.312
*I *55:A2 I *L 0.52073 *C 30.992 16.096
*I *357:A2 I *L 0.501039 *C 29.601 11.080
*N *2622:5 *C 29.764 11.080
*N *2622:6 *C 29.776 11.094
*N *2622:7 *C 30.992 16.084
*N *2622:8 *C 41.024 17.299
*N *2622:9 *C 41.024 15.654
*N *2622:10 *C 41.011 15.640
*N *2622:11 *C 35.704 15.640
*N *2622:12 *C 35.704 15.944
*N *2622:13 *C 31.006 15.944
*N *2622:14 *C 30.992 15.918
*N *2622:15 *C 30.992 15.350
*N *2622:16 *C 30.979 15.336
*N *2622:17 *C 29.790 15.336
*N *2622:18 *C 29.776 15.323
*N *2622:19 *C 29.624 15.336
*N *2622:20 *C 29.624 16.843
*N *2622:21 *C 29.611 16.856
*N *2622:22 *C 23.544 17.299
*N *2622:23 *C 23.544 16.870
*N *2622:24 *C 23.558 16.856
*N *2622:25 *C 29.016 16.856
*N *2622:26 *C 29.016 16.870
*N *2622:27 *C 29.016 17.755

*CAP
0 *399:Q 0.001
1 *385:A4 0.001
2 *295:A2 0.001
3 *55:A2 0.001
4 *357:A2 0.01557768
5 *2622:5 0.01350228
6 *2622:6 0.2763422
7 *2622:7 0.00982083
8 *2622:8 0.105171
9 *2622:9 0.1066037
10 *2622:10 0.2476053
11 *2622:11 0.2616619
12 *2622:12 0.2401314
13 *2622:13 0.2260748
14 *2622:14 0.05985733
15 *2622:15 0.04623161
16 *2622:16 0.0614923
17 *2622:17 0.0614923
18 *2622:18 0.2850336
19 *2622:19 0.1137253
20 *2622:20 0.1023648
21 *2622:21 0.03066111
22 *2622:22 0.03523535
23 *2622:23 0.03666803
24 *2622:24 0.2316005
25 *2622:25 0.2646339
26 *2622:26 0.05758723
27 *2622:27 0.05615455

*RES
0 *399:Q *2622:27 1
1 *2622:7 *55:A2 1
2 *2622:14 *2622:13 0.5
3 *2622:14 *2622:7 0.2758334
4 *2622:13 *2622:12 8.390179
5 *2622:9 *2622:8 2.9375
6 *2622:10 *2622:9 0.5
7 *2622:8 *295:A2 1
8 *2622:15 *2622:14 1.015179
9 *2622:16 *2622:15 0.5
10 *2622:18 *2622:17 0.5
11 *2622:18 *2622:6 7.551786
12 *2622:17 *2622:16 2.123214
13 *2622:5 *357:A2 0.2708334
14 *2622:6 *2622:5 1
15 *2622:20 *2622:19 2.690179
16 *2622:21 *2622:20 0.5
17 *2622:26 *2622:25 0.5
18 *2622:25 *2622:24 9.747323
19 *2622:25 *2622:21 1.061607
20 *2622:27 *2622:26 1.580357
21 *2622:23 *2622:22 0.7660714
22 *2622:24 *2622:23 0.5
23 *2622:22 *385:A4 1
24 *2622:19 *2622:18 0.2714286
25 *2622:12 *2622:11 0.5428572
26 *2622:11 *2622:10 9.475893

*END

*D_NET *2626 3.656159 //LENGTH 44.605 LUMPCC 0 DR

*CONN
*I *403:Q O *L 0 *C 22.176 17.008
*I *384:A4 I *L 0.569168 *C 18.984 22.784
*I *385:A2 I *L 0.501039 *C 23.392 17.768
*I *345:A2 I *L 0.501039 *C 32.208 7.736
*I *67:A2 I *L 0.52073 *C 38.083 7.280
*I *321:A4 I *L 0.552216 *C 41.205 10.939
*N *2626:6 *C 41.176 10.928
*N *2626:7 *C 41.176 10.915
*N *2626:8 *C 41.176 10.472
*N *2626:9 *C 40.873 10.472
*N *2626:10 *C 40.858 10.472
*N *2626:11 *C 38.150 10.472
*N *2626:12 *C 38.136 10.459
*N *2626:13 *C 37.954 7.736
*N *2626:14 *C 38.136 7.280
*N *2626:15 *C 38.136 7.294
*N *2626:16 *C 38.136 7.723
*N *2626:17 *C 38.123 7.736
*N *2626:18 *C 38.136 7.750
*N *2626:19 *C 38.136 8.040
*N *2626:20 *C 38.123 8.040
*N *2626:21 *C 32.982 8.040
*N *2626:22 *C 32.968 8.027
*N *2626:23 *C 32.968 7.750
*N *2626:24 *C 32.955 7.736
*N *2626:25 *C 32.221 7.736
*N *2626:26 *C 32.359 7.736
*N *2626:27 *C 32.373 7.736
*N *2626:28 *C 32.359 7.736
*N *2626:29 *C 32.056 7.736
*N *2626:30 *C 32.056 13.498
*N *2626:31 *C 32.043 13.512
*N *2626:32 *C 23.861 13.512
*N *2626:33 *C 23.848 13.526
*N *2626:34 *C 23.848 17.755
*N *2626:35 *C 23.835 17.768
*N *2626:36 *C 23.392 17.586
*N *2626:37 *C 23.392 17.756
*N *2626:38 *C 23.392 17.768
*N *2626:39 *C 18.984 22.771
*N *2626:40 *C 18.984 20.518
*N *2626:41 *C 18.998 20.504
*N *2626:42 *C 20.491 20.504
*N *2626:43 *C 20.504 20.491
*N *2626:44 *C 20.504 17.782
*N *2626:45 *C 20.518 17.768
*N *2626:46 *C 22.176 17.768
*N *2626:47 *C 22.176 17.755
*N *2626:48 *C 22.176 17.021

*CAP
0 *403:Q 0.001
1 *384:A4 0.001
2 *385:A2 0.001
3 *345:A2 0.001
4 *67:A2 0.009756763
5 *321:A4 0.01035269
6 *2626:6 0.008277291
7 *2626:7 0.03321145
8 *2626:8 0.05121008
9 *2626:9 0.01355101
10 *2626:10 0.1309905
11 *2626:11 0.1309911
12 *2626:12 0.1005022
13 *2626:13 0.01448722
14 *2626:14 0.007681365
15 *2626:15 0.03166968
16 *2626:16 0.03137286
17 *2626:17 0.009743335
18 *2626:18 0.01305366
19 *2626:19 0.115928
20 *2626:20 0.1923419
21 *2626:21 0.1923419
22 *2626:22 0.01471522
23 *2626:23 0.01471469
24 *2626:24 0.02948995
25 *2626:25 0.00576242
26 *2626:26 0.007195098
27 *2626:27 0.02711773
28 *2626:28 0.01257368
29 *2626:29 0.2508616
30 *2626:30 0.2335451
31 *2626:31 0.2662361
32 *2626:32 0.2662361
33 *2626:33 0.1861073
34 *2626:34 0.1861068
35 *2626:35 0.02306448
36 *2626:36 0.01972502
37 *2626:37 0.0135479
38 *2626:38 0.08344046
39 *2626:39 0.1297252
40 *2626:40 0.1311578
41 *2626:41 0.06522767
42 *2626:42 0.06522822
43 *2626:43 0.09571724
44 *2626:44 0.09571724
45 *2626:45 0.08306926
46 *2626:46 0.1434452
47 *2626:47 0.05317094
48 *2626:48 0.05179798

*RES
0 *403:Q *2626:48 1
1 *2626:11 *2626:10 4.837501
2 *2626:12 *2626:11 0.5
3 *2626:9 *2626:8 0.5410715
4 *2626:10 *2626:9 0.5
5 *2626:6 *321:A4 0.09166668
6 *2626:7 *2626:6 1
7 *2626:17 *2626:16 0.5
8 *2626:17 *2626:13 0.2825
9 *2626:18 *2626:17 0.5
10 *2626:16 *2626:15 0.7660714
11 *2626:14 *67:A2 0.09166668
12 *2626:15 *2626:14 1
13 *2626:19 *2626:18 0.5187501
14 *2626:19 *2626:12 4.31875
15 *2626:20 *2626:19 0.5
16 *2626:22 *2626:21 0.5
17 *2626:21 *2626:20 9.180358
18 *2626:24 *2626:23 0.5
19 *2626:23 *2626:22 0.4946429
20 *2626:26 *2626:25 0.2455357
21 *2626:27 *2626:26 0.5
22 *2626:27 *2626:24 1.0375
23 *2626:25 *345:A2 1
24 *2626:28 *2626:27 0.5
25 *2626:30 *2626:29 10.29018
26 *2626:31 *2626:30 0.5
27 *2626:33 *2626:32 0.5
28 *2626:32 *2626:31 14.60893
29 *2626:35 *2626:34 0.5
30 *2626:34 *2626:33 7.551786
31 *2626:37 *385:A2 1
32 *2626:37 *2626:36 0.2825
33 *2626:38 *2626:37 0.5
34 *2626:38 *2626:35 0.7901787
35 *2626:47 *2626:46 0.5
36 *2626:46 *2626:45 2.961607
37 *2626:46 *2626:38 2.171429
38 *2626:48 *2626:47 1.308929
39 *2626:45 *2626:44 0.5
40 *2626:44 *2626:43 4.8375
41 *2626:42 *2626:41 2.666071
42 *2626:43 *2626:42 0.5
43 *2626:40 *2626:39 4.023215
44 *2626:41 *2626:40 0.5
45 *2626:39 *384:A4 1
46 *2626:8 *2626:7 0.7901785
47 *2626:29 *2626:28 0.5410715

*END

*D_NET *2630 2.602266 //LENGTH 25.672 LUMPCC 0 DR

*CONN
*I *242:Q O *L 0 *C 23.392 41.176
*I *61:A6 I *L 0.609639 *C 18.224 43.152
*I *91:A4 I *L 0.514778 *C 17.464 45.888
*I *90:A4 I *L 0.566007 *C 15.488 46.192
*I *324:A3 I *L 0.536755 *C 24.456 44.520
*I *324:A1 I *L 0.483711 *C 25.064 44.216
*I *326:A1 I *L 0.502229 *C 28.104 46.040
*N *2630:7 *C 28.104 46.027
*N *2630:8 *C 28.104 44.838
*N *2630:9 *C 28.091 44.824
*N *2630:10 *C 25.078 44.824
*N *2630:11 *C 25.064 44.811
*N *2630:12 *C 25.064 44.230
*N *2630:13 *C 25.064 44.520
*N *2630:14 *C 24.913 44.520
*N *2630:15 *C 24.899 44.520
*N *2630:16 *C 24.456 44.338
*N *2630:17 *C 24.456 44.508
*N *2630:18 *C 24.456 44.520
*N *2630:19 *C 23.405 44.520
*N *2630:20 *C 23.392 44.507
*N *2630:21 *C 15.488 46.192
*N *2630:22 *C 15.488 46.332
*N *2630:23 *C 15.502 46.344
*N *2630:24 *C 17.602 46.344
*N *2630:25 *C 17.616 46.331
*N *2630:26 *C 17.464 45.875
*N *2630:27 *C 17.464 45.736
*N *2630:28 *C 17.616 45.750
*N *2630:29 *C 17.630 45.736
*N *2630:30 *C 18.210 45.736
*N *2630:31 *C 18.224 45.723
*N *2630:32 *C 18.224 43.152
*N *2630:33 *C 18.224 40.886
*N *2630:34 *C 18.238 40.872
*N *2630:35 *C 23.379 40.872
*N *2630:36 *C 23.392 40.886
*N *2630:37 *C 23.392 41.176

*CAP
0 *242:Q 0.001
1 *61:A6 0.001
2 *91:A4 0.001
3 *90:A4 0.001
4 *324:A3 0.001
5 *324:A1 0.001
6 *326:A1 0.001
7 *2630:7 0.06972879
8 *2630:8 0.07116147
9 *2630:9 0.2038532
10 *2630:10 0.2038532
11 *2630:11 0.01527925
12 *2630:12 0.01360954
13 *2630:13 0.04420843
14 *2630:14 0.006770309
15 *2630:15 0.02246633
16 *2630:16 0.0188961
17 *2630:17 0.01271898
18 *2630:18 0.07678796
19 *2630:19 0.05194941
20 *2630:20 0.1732361
21 *2630:21 0.01388798
22 *2630:22 0.01532065
23 *2630:23 0.08684514
24 *2630:24 0.08684514
25 *2630:25 0.03907169
26 *2630:26 0.01125982
27 *2630:27 0.02419128
28 *2630:28 0.04819825
29 *2630:29 0.02435827
30 *2630:30 0.02435827
31 *2630:31 0.1427328
32 *2630:32 0.2775818
33 *2630:33 0.1339095
34 *2630:34 0.2410353
35 *2630:35 0.2410353
36 *2630:36 0.01296985
37 *2630:37 0.1871455

*RES
0 *242:Q *2630:37 1
1 *2630:11 *2630:10 0.5
2 *2630:10 *2630:9 5.380358
3 *2630:8 *2630:7 2.123214
4 *2630:9 *2630:8 0.5
5 *2630:7 *326:A1 1
6 *2630:12 *324:A1 1
7 *2630:14 *2630:13 0.2696429
8 *2630:15 *2630:14 0.5
9 *2630:17 *324:A3 1
10 *2630:17 *2630:16 0.2825
11 *2630:18 *2630:17 0.5
12 *2630:18 *2630:15 0.7901786
13 *2630:20 *2630:19 0.5
14 *2630:19 *2630:18 1.875893
15 *2630:37 *2630:36 0.5187501
16 *2630:37 *2630:20 5.947322
17 *2630:32 *61:A6 1
18 *2630:32 *2630:31 4.590179
19 *2630:36 *2630:35 0.5
20 *2630:35 *2630:34 9.180358
21 *2630:33 *2630:32 4.047322
22 *2630:34 *2630:33 0.5
23 *2630:31 *2630:30 0.5
24 *2630:30 *2630:29 1.0375
25 *2630:28 *2630:27 0.2714286
26 *2630:28 *2630:25 1.0375
27 *2630:29 *2630:28 0.5
28 *2630:26 *91:A4 1
29 *2630:25 *2630:24 0.5
30 *2630:24 *2630:23 3.751786
31 *2630:22 *2630:21 0.2325
32 *2630:23 *2630:22 0.5
33 *2630:21 *90:A4 1
34 *2630:27 *2630:26 0.2473214
35 *2630:13 *2630:12 0.5187501
36 *2630:13 *2630:11 0.5187501

*END

*D_NET *2637 1.559798 //LENGTH 14.205 LUMPCC 0 DR

*CONN
*I *250:Q O *L 0 *C 35.096 21.112
*I *274:A2 I *L 1.016717 *C 31.752 14.120
*I *53:A4 I *L 0.552216 *C 31.448 11.080
*N *2637:3 *C 31.448 11.081
*N *2637:4 *C 31.448 14.107
*N *2637:5 *C 31.462 14.120
*N *2637:6 *C 31.739 14.120
*N *2637:7 *C 31.752 14.134
*N *2637:8 *C 31.752 18.666
*N *2637:9 *C 31.766 18.680
*N *2637:10 *C 35.083 18.680
*N *2637:11 *C 35.096 18.694
*N *2637:12 *C 35.096 21.099

*CAP
0 *250:Q 0.001
1 *274:A2 0.001
2 *53:A4 0.001
3 *2637:3 0.1791563
4 *2637:4 0.180589
5 *2637:5 0.01563269
6 *2637:6 0.01563269
7 *2637:7 0.2880538
8 *2637:8 0.2918587
9 *2637:9 0.1525955
10 *2637:10 0.1525955
11 *2637:11 0.1410585
12 *2637:12 0.1396258

*RES
0 *250:Q *2637:12 1
1 *2637:8 *2637:7 8.094644
2 *2637:9 *2637:8 0.5
3 *2637:11 *2637:10 0.5
4 *2637:10 *2637:9 5.923214
5 *2637:12 *2637:11 4.294643
6 *2637:7 *274:A2 1
7 *2637:7 *2637:6 0.5
8 *2637:6 *2637:5 0.4946429
9 *2637:4 *2637:3 5.402678
10 *2637:5 *2637:4 0.5
11 *2637:3 *53:A4 1

*END

*D_NET *2638 1.979047 //LENGTH 20.626 LUMPCC 0 DR

*CONN
*I *244:Q O *L 0 *C 42.848 15.640
*I *295:A4 I *L 0.552216 *C 41.176 17.768
*I *271:A2 I *L 1.016717 *C 33.576 15.944
*I *55:A6 I *L 0.609639 *C 30.232 16.400
*I *288:A1 I *L 0.610599 *C 42.484 19.288
*I *292:A2 I *L 0.538095 *C 42.741 20.656
*N *2638:6 *C 42.696 20.656
*N *2638:7 *C 42.696 20.643
*N *2638:8 *C 42.681 19.288
*N *2638:9 *C 42.696 19.288
*N *2638:10 *C 30.232 16.399
*N *2638:11 *C 30.232 16.262
*N *2638:12 *C 30.245 16.248
*N *2638:13 *C 33.576 15.958
*N *2638:14 *C 33.576 16.235
*N *2638:15 *C 33.576 16.248
*N *2638:16 *C 41.176 17.767
*N *2638:17 *C 41.176 16.262
*N *2638:18 *C 41.176 16.248
*N *2638:19 *C 42.683 16.248
*N *2638:20 *C 42.696 16.248
*N *2638:21 *C 42.848 16.248
*N *2638:22 *C 42.848 15.654

*CAP
0 *244:Q 0.001
1 *295:A4 0.001
2 *271:A2 0.001
3 *55:A6 0.001
4 *288:A1 0.0200771
5 *292:A2 0.01069789
6 *2638:6 0.008622488
7 *2638:7 0.07401437
8 *2638:8 0.0180017
9 *2638:9 0.2435565
10 *2638:10 0.00981627
11 *2638:11 0.01124895
12 *2638:12 0.1549171
13 *2638:13 0.01488397
14 *2638:14 0.01631665
15 *2638:15 0.472275
16 *2638:16 0.1064446
17 *2638:17 0.1078773
18 *2638:18 0.3812608
19 *2638:19 0.06390288
20 *2638:20 0.1761579
21 *2638:21 0.04888428
22 *2638:22 0.03609135

*RES
0 *244:Q *2638:22 1
1 *2638:22 *2638:21 1.061607
2 *2638:6 *292:A2 0.09166668
3 *2638:7 *2638:6 1
4 *2638:8 *288:A1 0.3940001
5 *2638:9 *2638:8 1
6 *2638:9 *2638:7 2.41875
7 *2638:20 *2638:19 0.5
8 *2638:20 *2638:9 5.428572
9 *2638:19 *2638:18 2.690179
10 *2638:17 *2638:16 2.688393
11 *2638:18 *2638:17 0.5
12 *2638:18 *2638:15 13.57143
13 *2638:16 *295:A4 1
14 *2638:14 *2638:13 0.4946429
15 *2638:15 *2638:14 0.5
16 *2638:15 *2638:12 5.947322
17 *2638:13 *271:A2 1
18 *2638:11 *2638:10 0.2455357
19 *2638:12 *2638:11 0.5
20 *2638:10 *55:A6 1
21 *2638:21 *2638:20 0.2714286

*END

*D_NET *2642 1.845454 //LENGTH 16.088 LUMPCC 0 DR

*CONN
*I *247:Q O *L 0 *C 37.528 14.424
*I *81:A3 I *L 0.572394 *C 37.528 11.080
*I *67:A6 I *L 0.609639 *C 38.744 6.976
*I *506:A1 I *L 0.601783 *C 39.778 12.473
*I *321:A2 I *L 0.52073 *C 41.024 10.624
*I *77:A4 I *L 0.566007 *C 37.680 9.408
*N *2642:6 *C 37.680 9.421
*N *2642:7 *C 41.024 10.624
*N *2642:8 *C 41.024 10.764
*N *2642:9 *C 41.011 10.776
*N *2642:10 *C 38.759 12.448
*N *2642:11 *C 38.744 12.434
*N *2642:12 *C 38.744 6.977
*N *2642:13 *C 38.744 10.776
*N *2642:14 *C 38.744 10.776
*N *2642:15 *C 37.694 10.776
*N *2642:16 *C 37.680 10.776
*N *2642:17 *C 37.680 11.384
*N *2642:18 *C 37.528 11.094
*N *2642:19 *C 37.528 11.384
*N *2642:20 *C 37.528 14.411

*CAP
0 *247:Q 0.001
1 *81:A3 0.001
2 *67:A6 0.001
3 *506:A1 0.06341402
4 *321:A2 0.001
5 *77:A4 0.001
6 *2642:6 0.08912441
7 *2642:7 0.01104789
8 *2642:8 0.01248057
9 *2642:9 0.1106466
10 *2642:10 0.06133862
11 *2642:11 0.1192517
12 *2642:12 0.2555481
13 *2642:13 0.3783078
14 *2642:14 0.163149
15 *2642:15 0.05013027
16 *2642:16 0.1326171
17 *2642:17 0.05095363
18 *2642:18 0.01598388
19 *2642:19 0.1794741
20 *2642:20 0.1469868

*RES
0 *247:Q *2642:20 1
1 *2642:8 *2642:7 0.2325
2 *2642:9 *2642:8 0.5
3 *2642:7 *321:A2 1
4 *2642:10 *506:A1 2.038
5 *2642:11 *2642:10 1
6 *2642:13 *2642:12 6.783929
7 *2642:13 *2642:11 2.961607
8 *2642:14 *2642:13 0.5
9 *2642:14 *2642:9 4.047322
10 *2642:12 *67:A6 1
11 *2642:16 *2642:15 0.5
12 *2642:16 *2642:6 2.41875
13 *2642:15 *2642:14 1.875893
14 *2642:6 *77:A4 1
15 *2642:20 *2642:19 5.404464
16 *2642:18 *81:A3 1
17 *2642:19 *2642:18 0.5187501
18 *2642:19 *2642:17 0.2714286
19 *2642:17 *2642:16 1.085714

*END

*D_NET *2645 1.373793 //LENGTH 13.785 LUMPCC 0 DR

*CONN
*I *364:Q O *L 0 *C 30.384 5.608
*I *356:A4 I *L 0.569168 *C 27.952 10.624
*I *274:A1 I *L 1.20536 *C 32.056 13.968
*I *53:A6 I *L 0.609639 *C 30.840 10.320
*N *2645:4 *C 30.840 10.321
*N *2645:5 *C 30.840 10.472
*N *2645:6 *C 32.056 13.955
*N *2645:7 *C 32.056 10.486
*N *2645:8 *C 32.043 10.472
*N *2645:9 *C 27.952 10.612
*N *2645:10 *C 27.952 10.472
*N *2645:11 *C 27.966 10.472
*N *2645:12 *C 30.384 10.472
*N *2645:13 *C 30.384 10.472
*N *2645:14 *C 30.384 5.622

*CAP
0 *364:Q 0.001
1 *356:A4 0.001
2 *274:A1 0.001
3 *53:A6 0.001
4 *2645:4 0.009458495
5 *2645:5 0.03669426
6 *2645:6 0.196891
7 *2645:7 0.1983237
8 *2645:8 0.07281353
9 *2645:9 0.01249065
10 *2645:10 0.01392333
11 *2645:11 0.1156272
12 *2645:12 0.1908129
13 *2645:13 0.2738107
14 *2645:14 0.2489472

*RES
0 *364:Q *2645:14 1
1 *2645:7 *2645:6 6.194643
2 *2645:8 *2645:7 0.5
3 *2645:6 *274:A1 1
4 *2645:4 *53:A6 1
5 *2645:13 *2645:12 0.5
6 *2645:13 *2645:5 0.8142857
7 *2645:12 *2645:11 4.31875
8 *2645:12 *2645:8 2.961607
9 *2645:14 *2645:13 8.661608
10 *2645:10 *2645:9 0.2325
11 *2645:11 *2645:10 0.5
12 *2645:9 *356:A4 1
13 *2645:5 *2645:4 0.2696429

*END

*D_NET *2647 1.27237 //LENGTH 13.475 LUMPCC 0 DR

*CONN
*I *366:Q O *L 0 *C 25.520 24.456
*I *358:A4 I *L 0.569168 *C 29.624 22.784
*I *72:A I *L 0.582888 *C 32.512 20.808
*I *57:A4 I *L 0.529682 *C 34.032 22.328
*N *2647:4 *C 34.032 22.341
*N *2647:5 *C 34.032 22.922
*N *2647:6 *C 34.019 22.936
*N *2647:7 *C 32.512 20.822
*N *2647:8 *C 32.512 22.922
*N *2647:9 *C 32.512 22.936
*N *2647:10 *C 29.624 22.784
*N *2647:11 *C 29.624 22.924
*N *2647:12 *C 29.624 22.936
*N *2647:13 *C 25.534 22.936
*N *2647:14 *C 25.520 22.950
*N *2647:15 *C 25.520 24.443

*CAP
0 *366:Q 0.001
1 *358:A4 0.001
2 *72:A 0.001
3 *57:A4 0.001
4 *2647:4 0.04225262
5 *2647:5 0.04368529
6 *2647:6 0.0690797
7 *2647:7 0.1278849
8 *2647:8 0.1293176
9 *2647:9 0.1955319
10 *2647:10 0.009298424
11 *2647:11 0.0107311
12 *2647:12 0.3036534
13 *2647:13 0.1772012
14 *2647:14 0.08058306
15 *2647:15 0.07915038

*RES
0 *366:Q *2647:15 1
1 *2647:5 *2647:4 1.0375
2 *2647:6 *2647:5 0.5
3 *2647:4 *57:A4 1
4 *2647:8 *2647:7 3.751786
5 *2647:9 *2647:8 0.5
6 *2647:9 *2647:6 2.690179
7 *2647:7 *72:A 1
8 *2647:11 *2647:10 0.2325
9 *2647:12 *2647:11 0.5
10 *2647:12 *2647:9 5.157143
11 *2647:10 *358:A4 1
12 *2647:14 *2647:13 0.5
13 *2647:13 *2647:12 7.304465
14 *2647:15 *2647:14 2.666071

*END

*D_NET *2649 1.239172 //LENGTH 10.875 LUMPCC 0 DR

*CONN
*I *372:Q O *L 0 *C 36.312 11.080
*I *75:A I *L 0.582888 *C 33.728 7.432
*I *344:A4 I *L 0.569168 *C 34.944 6.064
*I *65:A6 I *L 0.609639 *C 36.160 6.976
*N *2649:4 *C 36.160 6.990
*N *2649:5 *C 34.944 6.078
*N *2649:6 *C 33.728 7.419
*N *2649:7 *C 33.728 7.142
*N *2649:8 *C 33.742 7.128
*N *2649:9 *C 34.931 7.128
*N *2649:10 *C 34.944 7.128
*N *2649:11 *C 34.944 9.242
*N *2649:12 *C 34.958 9.256
*N *2649:13 *C 36.147 9.256
*N *2649:14 *C 36.160 9.256
*N *2649:15 *C 36.312 9.256
*N *2649:16 *C 36.312 11.067

*CAP
0 *372:Q 0.001
1 *75:A 0.001
2 *344:A4 0.001
3 *65:A6 0.001
4 *2649:4 0.18191
5 *2649:5 0.05422997
6 *2649:6 0.01467495
7 *2649:7 0.01610763
8 *2649:8 0.05534549
9 *2649:9 0.05534549
10 *2649:10 0.1653904
11 *2649:11 0.1073555
12 *2649:12 0.07022343
13 *2649:13 0.07022343
14 *2649:14 0.1923594
15 *2649:15 0.132414
16 *2649:16 0.1195924

*RES
0 *372:Q *2649:16 1
1 *2649:16 *2649:15 3.233036
2 *2649:4 *65:A6 1
3 *2649:14 *2649:13 0.5
4 *2649:14 *2649:4 4.047322
5 *2649:13 *2649:12 2.123214
6 *2649:11 *2649:10 3.775893
7 *2649:12 *2649:11 0.5
8 *2649:5 *344:A4 1
9 *2649:10 *2649:9 0.5
10 *2649:10 *2649:5 1.875893
11 *2649:9 *2649:8 2.123214
12 *2649:7 *2649:6 0.4946429
13 *2649:8 *2649:7 0.5
14 *2649:6 *75:A 1
15 *2649:15 *2649:14 0.2714286

*END

*D_NET *2653 0.9733978 //LENGTH 9.778 LUMPCC 0 DR

*CONN
*I *360:Q O *L 0 *C 13.816 39.048
*I *88:A I *L 0.582888 *C 12.296 42.696
*I *59:A6 I *L 0.609639 *C 16.248 43.152
*I *348:A4 I *L 0.569168 *C 14.576 42.848
*N *2653:4 *C 14.576 42.836
*N *2653:5 *C 16.248 43.151
*N *2653:6 *C 16.248 42.710
*N *2653:7 *C 16.235 42.696
*N *2653:8 *C 12.296 42.514
*N *2653:9 *C 12.296 42.684
*N *2653:10 *C 12.309 42.696
*N *2653:11 *C 14.576 42.696
*N *2653:12 *C 14.576 42.670
*N *2653:13 *C 14.576 39.669
*N *2653:14 *C 14.562 39.656
*N *2653:15 *C 13.830 39.656
*N *2653:16 *C 13.816 39.643
*N *2653:17 *C 13.816 39.062

*CAP
0 *360:Q 0.001
1 *88:A 0.001
2 *59:A6 0.001
3 *348:A4 0.001
4 *2653:4 0.009984672
5 *2653:5 0.02520236
6 *2653:6 0.02663504
7 *2653:7 0.08202065
8 *2653:8 0.01443252
9 *2653:9 0.008255405
10 *2653:10 0.1032795
11 *2653:11 0.1876724
12 *2653:12 0.2006999
13 *2653:13 0.1869103
14 *2653:14 0.03156388
15 *2653:15 0.03156388
16 *2653:16 0.031305
17 *2653:17 0.02987232

*RES
0 *360:Q *2653:17 1
1 *2653:6 *2653:5 0.7883929
2 *2653:7 *2653:6 0.5
3 *2653:5 *59:A6 1
4 *2653:4 *348:A4 1
5 *2653:12 *2653:11 0.5
6 *2653:12 *2653:4 0.2758334
7 *2653:11 *2653:10 4.047322
8 *2653:11 *2653:7 2.961607
9 *2653:13 *2653:12 5.358036
10 *2653:14 *2653:13 0.5
11 *2653:16 *2653:15 0.5
12 *2653:15 *2653:14 1.308929
13 *2653:17 *2653:16 1.0375
14 *2653:9 *88:A 1
15 *2653:9 *2653:8 0.2825
16 *2653:10 *2653:9 0.5

*END

*D_NET *2656 1.959517 //LENGTH 17.581 LUMPCC 0 DR

*CONN
*I *363:Q O *L 0 *C 14.576 35.704
*I *351:A4 I *L 0.569168 *C 19.896 34.032
*I *109:A6 I *L 0.609639 *C 20.808 43.152
*I *92:A I *L 0.582888 *C 21.234 44.216
*N *2656:4 *C 14.576 35.522
*N *2656:5 *C 20.823 44.216
*N *2656:6 *C 20.808 44.203
*N *2656:7 *C 20.808 43.152
*N *2656:8 *C 20.808 42.392
*N *2656:9 *C 20.656 42.392
*N *2656:10 *C 20.656 35.718
*N *2656:11 *C 20.643 35.704
*N *2656:12 *C 19.896 34.046
*N *2656:13 *C 19.896 35.691
*N *2656:14 *C 19.896 35.704
*N *2656:15 *C 14.590 35.704
*N *2656:16 *C 14.576 35.692

*CAP
0 *363:Q 0.001
1 *351:A4 0.001
2 *109:A6 0.001
3 *92:A 0.03043853
4 *2656:4 0.01336669
5 *2656:5 0.02836314
6 *2656:6 0.06831215
7 *2656:7 0.1267238
8 *2656:8 0.06944603
9 *2656:9 0.3799475
10 *2656:10 0.3682703
11 *2656:11 0.04031725
12 *2656:12 0.1223664
13 *2656:13 0.1237991
14 *2656:14 0.3103328
15 *2656:15 0.2676434
16 *2656:16 0.007189577

*RES
0 *363:Q *2656:16 1
1 *2656:5 *92:A 0.8220001
2 *2656:6 *2656:5 1
3 *2656:7 *109:A6 1
4 *2656:7 *2656:6 1.875893
5 *2656:10 *2656:9 11.91875
6 *2656:11 *2656:10 0.5
7 *2656:13 *2656:12 2.9375
8 *2656:14 *2656:13 0.5
9 *2656:14 *2656:11 1.333036
10 *2656:12 *351:A4 1
11 *2656:16 *2656:15 0.5
12 *2656:16 *2656:4 0.2825
13 *2656:15 *2656:14 9.475893
14 *2656:9 *2656:8 0.2714286
15 *2656:8 *2656:7 1.357143

*END

*D_NET *2660 0.9602787 //LENGTH 9.808 LUMPCC 0 DR

*CONN
*I *371:Q O *L 0 *C 14.728 32.360
*I *355:A4 I *L 0.569168 *C 19.896 32.816
*I *100:A I *L 0.582888 *C 21.264 32.664
*I *106:A3 I *L 0.507548 *C 21.720 33.576
*N *2660:4 *C 14.728 32.178
*N *2660:5 *C 21.720 33.562
*N *2660:6 *C 21.720 32.361
*N *2660:7 *C 21.719 32.360
*N *2660:8 *C 21.264 32.651
*N *2660:9 *C 21.264 32.373
*N *2660:10 *C 21.264 32.360
*N *2660:11 *C 19.883 32.816
*N *2660:12 *C 19.744 32.816
*N *2660:13 *C 19.744 32.373
*N *2660:14 *C 19.744 32.360
*N *2660:15 *C 14.742 32.360
*N *2660:16 *C 14.728 32.348

*CAP
0 *371:Q 0.001
1 *355:A4 0.001
2 *100:A 0.001
3 *106:A3 0.001
4 *2660:4 0.01497239
5 *2660:5 0.09032911
6 *2660:6 0.09176179
7 *2660:7 0.02035068
8 *2660:8 0.02509126
9 *2660:9 0.02652394
10 *2660:10 0.08971712
11 *2660:11 0.006449859
12 *2660:12 0.04401928
13 *2660:13 0.03139231
14 *2660:14 0.288121
15 *2660:15 0.2187546
16 *2660:16 0.008795274

*RES
0 *371:Q *2660:16 1
1 *2660:6 *2660:5 2.145536
2 *2660:7 *2660:6 0.5
3 *2660:5 *106:A3 1
4 *2660:9 *2660:8 0.4946429
5 *2660:10 *2660:9 0.5
6 *2660:10 *2660:7 0.8125
7 *2660:8 *100:A 1
8 *2660:13 *2660:12 0.7901786
9 *2660:14 *2660:13 0.5
10 *2660:14 *2660:10 2.714286
11 *2660:11 *355:A4 1
12 *2660:16 *2660:15 0.5
13 *2660:16 *2660:4 0.2825
14 *2660:15 *2660:14 8.933037
15 *2660:12 *2660:11 0.2473214

*END

*D_NET *2665 0.4919297 //LENGTH 5.802 LUMPCC 0 DR

*CONN
*I *209:Y O *L 0 *C 9.408 7.128
*I *225:D I *L 0.543569 *C 12.600 9.408
*N *2665:2 *C 12.600 9.395
*N *2665:3 *C 12.600 8.053
*N *2665:4 *C 12.587 8.040
*N *2665:5 *C 9.421 8.040
*N *2665:6 *C 9.408 8.027
*N *2665:7 *C 9.408 7.142

*CAP
0 *209:Y 0.001
1 *225:D 0.001
2 *2665:2 0.06160034
3 *2665:3 0.06303301
4 *2665:4 0.1348976
5 *2665:5 0.1348976
6 *2665:6 0.04846691
7 *2665:7 0.04703423

*RES
0 *209:Y *2665:7 1
1 *2665:2 *225:D 1
2 *2665:3 *2665:2 2.394643
3 *2665:4 *2665:3 0.5
4 *2665:6 *2665:5 0.5
5 *2665:5 *2665:4 5.651786
6 *2665:7 *2665:6 1.580357

*END

*D_NET *2669 0.09381364 //LENGTH 1.227 LUMPCC 0 DR

*CONN
*I *297:Y O *L 0 *C 7.888 22.936
*I *227:D I *L 0.543569 *C 8.496 22.784
*N *2669:2 *C 7.888 22.754
*N *2669:3 *C 8.496 22.784
*N *2669:4 *C 8.496 22.924
*N *2669:5 *C 8.482 22.936
*N *2669:6 *C 7.902 22.936
*N *2669:7 *C 7.888 22.924

*CAP
0 *297:Y 0.001
1 *227:D 0.001
2 *2669:2 0.01385603
3 *2669:3 0.008996327
4 *2669:4 0.01042901
5 *2669:5 0.02542668
6 *2669:6 0.02542668
7 *2669:7 0.007678918

*RES
0 *297:Y *2669:7 1
1 *2669:3 *227:D 1
2 *2669:4 *2669:3 0.2325
3 *2669:5 *2669:4 0.5
4 *2669:7 *2669:6 0.5
5 *2669:7 *2669:2 0.2825
6 *2669:6 *2669:5 1.0375

*END

*D_NET *2672 0.07486993 //LENGTH 0.591 LUMPCC 0 DR

*CONN
*I *265:Y O *L 0 *C 8.635 29.472
*I *223:D I *L 0.543569 *C 9.226 29.472

*CAP
0 *265:Y 0.03743497
1 *223:D 0.03743497

*RES
0 *265:Y *223:D 1.182

*END

*D_NET *2676 0.1769881 //LENGTH 1.638 LUMPCC 0 DR

*CONN
*I *214:Y O *L 0 *C 9.480 36.312
*I *137:D I *L 0.543562 *C 9.834 37.376
*N *2676:2 *C 9.575 37.376
*N *2676:3 *C 9.560 37.363
*N *2676:4 *C 9.560 36.326
*N *2676:5 *C 9.548 36.312

*CAP
0 *214:Y 0.01254366
1 *137:D 0.02566003
2 *2676:2 0.02358463
3 *2676:3 0.05236575
4 *2676:4 0.05236575
5 *2676:5 0.01046826

*RES
0 *214:Y *2676:5 0.1125
1 *2676:2 *137:D 0.5180001
2 *2676:3 *2676:2 1
3 *2676:5 *2676:4 1
4 *2676:4 *2676:3 1.851786

*END

*D_NET *2678 0.3282295 //LENGTH 3.674 LUMPCC 0 DR

*CONN
*I *221:Y O *L 0 *C 11.080 32.816
*I *222:D I *L 0.543569 *C 9.864 30.688
*N *2678:2 *C 9.864 30.702
*N *2678:3 *C 9.864 32.346
*N *2678:4 *C 9.878 32.360
*N *2678:5 *C 11.067 32.360
*N *2678:6 *C 11.080 32.373
*N *2678:7 *C 11.080 32.803

*CAP
0 *221:Y 0.001
1 *222:D 0.001
2 *2678:2 0.07622211
3 *2678:3 0.07765479
4 *2678:4 0.05464839
5 *2678:5 0.05464839
6 *2678:6 0.03224422
7 *2678:7 0.03081154

*RES
0 *221:Y *2678:7 1
1 *2678:2 *222:D 1
2 *2678:3 *2678:2 2.9375
3 *2678:4 *2678:3 0.5
4 *2678:6 *2678:5 0.5
5 *2678:5 *2678:4 2.123214
6 *2678:7 *2678:6 0.7660714

*END

*D_NET *2682 3.244201 //LENGTH 27.558 LUMPCC 0 DR

*CONN
*I *171:Y O *L 0 *C 38.704 26.154
*I *69:A1 I *L 0.496377 *C 41.632 7.584
*I *112:A1 I *L 0.514394 *C 42.208 9.104
*I *65:A1 I *L 0.514394 *C 37.104 7.584
*I *67:A1 I *L 0.514394 *C 37.800 7.584
*N *2682:5 *C 37.376 7.584
*N *2682:6 *C 37.376 7.571
*N *2682:7 *C 37.376 7.142
*N *2682:8 *C 37.390 7.128
*N *2682:9 *C 38.427 7.128
*N *2682:10 *C 38.440 7.142
*N *2682:11 *C 38.440 7.736
*N *2682:12 *C 41.799 9.104
*N *2682:13 *C 41.784 9.091
*N *2682:14 *C 41.784 7.736
*N *2682:15 *C 41.632 7.597
*N *2682:16 *C 41.633 7.736
*N *2682:17 *C 41.619 7.736
*N *2682:18 *C 38.605 7.736
*N *2682:19 *C 38.592 7.750
*N *2682:20 *C 38.592 26.114
*N *2682:21 *C 38.605 26.128

*CAP
0 *171:Y 0.01459602
1 *69:A1 0.001
2 *112:A1 0.03906028
3 *65:A1 0.02016642
4 *67:A1 0.02999402
5 *2682:5 0.05507232
6 *2682:6 0.03344394
7 *2682:7 0.03314712
8 *2682:8 0.0499949
9 *2682:9 0.0499949
10 *2682:10 0.04596664
11 *2682:11 0.0576434
12 *2682:12 0.03698488
13 *2682:13 0.08247437
14 *2682:14 0.09305564
15 *2682:15 0.01207516
16 *2682:16 0.02201371
17 *2682:17 0.1471718
18 *2682:18 0.1471718
19 *2682:19 1.13483
20 *2682:20 1.125823
21 *2682:21 0.01252062

*RES
0 *171:Y *2682:21 0.1658334
1 *2682:12 *112:A1 0.8180001
2 *2682:13 *2682:12 1
3 *2682:15 *69:A1 1
4 *2682:21 *2682:20 1
5 *2682:20 *2682:19 32.79464
6 *2682:16 *2682:15 0.2325
7 *2682:16 *2682:14 0.2696429
8 *2682:17 *2682:16 0.5
9 *2682:19 *2682:18 0.5
10 *2682:19 *2682:11 0.2714286
11 *2682:18 *2682:17 5.380358
12 *2682:10 *2682:9 0.5
13 *2682:9 *2682:8 1.851786
14 *2682:7 *2682:6 0.7660714
15 *2682:8 *2682:7 0.5
16 *2682:5 *65:A1 0.544
17 *2682:5 *67:A1 0.848
18 *2682:6 *2682:5 1
19 *2682:11 *2682:10 1.061607
20 *2682:14 *2682:13 2.418751

*END

*D_NET *2685 0.4374432 //LENGTH 4.828 LUMPCC 0 DR

*CONN
*I *154:Y O *L 0 *C 7.128 42.848
*I *155:A2 I *L 0.466516 *C 8.192 44.216
*I *74:A4 I *L 0.514778 *C 9.712 42.544
*N *2685:3 *C 9.712 42.558
*N *2685:4 *C 9.712 42.986
*N *2685:5 *C 9.699 43.000
*N *2685:6 *C 8.192 44.215
*N *2685:7 *C 8.192 43.014
*N *2685:8 *C 8.192 43.000
*N *2685:9 *C 7.142 43.000
*N *2685:10 *C 7.128 42.988
*N *2685:11 *C 7.128 42.848

*CAP
0 *154:Y 0.001
1 *155:A2 0.001
2 *74:A4 0.001
3 *2685:3 0.03106654
4 *2685:4 0.03249922
5 *2685:5 0.0640442
6 *2685:6 0.07233719
7 *2685:7 0.07359692
8 *2685:8 0.1048319
9 *2685:9 0.03841547
10 *2685:10 0.009542231
11 *2685:11 0.008109552

*RES
0 *154:Y *2685:11 1
1 *2685:4 *2685:3 0.7660714
2 *2685:5 *2685:4 0.5
3 *2685:3 *74:A4 1
4 *2685:7 *2685:6 2.145536
5 *2685:8 *2685:7 0.5
6 *2685:8 *2685:5 2.690179
7 *2685:6 *155:A2 1
8 *2685:10 *2685:9 0.5
9 *2685:9 *2685:8 1.875893
10 *2685:11 *2685:10 0.2325

*END

*D_NET *2687 0.7762309 //LENGTH 7.531 LUMPCC 0 DR

*CONN
*I *152:Y O *L 0 *C 5.456 39.504
*I *78:A4 I *L 0.514778 *C 7.432 39.200
*I *159:A2 I *L 0.578798 *C 8.344 37.528
*I *153:A2 I *L 0.466516 *C 5.758 40.900
*N *2687:4 *C 5.620 40.872
*N *2687:5 *C 5.608 40.858
*N *2687:6 *C 8.344 37.541
*N *2687:7 *C 8.344 39.643
*N *2687:8 *C 8.331 39.656
*N *2687:9 *C 7.432 39.214
*N *2687:10 *C 7.432 39.643
*N *2687:11 *C 7.432 39.656
*N *2687:12 *C 5.622 39.656
*N *2687:13 *C 5.608 39.669
*N *2687:14 *C 5.456 39.656
*N *2687:15 *C 5.456 39.518

*CAP
0 *152:Y 0.001
1 *78:A4 0.001
2 *159:A2 0.001
3 *153:A2 0.008400243
4 *2687:4 0.006324845
5 *2687:5 0.07036729
6 *2687:6 0.1305844
7 *2687:7 0.1320171
8 *2687:8 0.0416709
9 *2687:9 0.03762435
10 *2687:10 0.03905703
11 *2687:11 0.1211072
12 *2687:12 0.0770641
13 *2687:13 0.07816403
14 *2687:14 0.02137389
15 *2687:15 0.009475431

*RES
0 *152:Y *2687:15 1
1 *2687:7 *2687:6 3.751786
2 *2687:8 *2687:7 0.5
3 *2687:6 *159:A2 1
4 *2687:10 *2687:9 0.7660714
5 *2687:11 *2687:10 0.5
6 *2687:11 *2687:8 1.604464
7 *2687:9 *78:A4 1
8 *2687:4 *153:A2 0.07083334
9 *2687:5 *2687:4 1
10 *2687:13 *2687:12 0.5
11 *2687:13 *2687:5 2.123214
12 *2687:12 *2687:11 3.233036
13 *2687:15 *2687:14 0.2473214
14 *2687:14 *2687:13 0.2714286

*END

*D_NET *2689 0.4071278 //LENGTH 4.454 LUMPCC 0 DR

*CONN
*I *150:Y O *L 0 *C 5.760 27.344
*I *151:A1 I *L 0.549073 *C 6.520 29.016
*I *265:A3 I *L 0.539281 *C 7.888 29.016
*N *2689:3 *C 7.888 28.834
*N *2689:4 *C 7.888 29.004
*N *2689:5 *C 7.875 29.016
*N *2689:6 *C 6.520 28.884
*N *2689:7 *C 6.520 29.004
*N *2689:8 *C 6.520 29.016
*N *2689:9 *C 5.774 29.016
*N *2689:10 *C 5.760 29.003
*N *2689:11 *C 5.760 27.358

*CAP
0 *150:Y 0.001
1 *151:A1 0.001
2 *265:A3 0.001
3 *2689:3 0.02156026
4 *2689:4 0.01538315
5 *2689:5 0.05618894
6 *2689:6 0.0161461
7 *2689:7 0.007992135
8 *2689:8 0.08300312
9 *2689:9 0.02641881
10 *2689:10 0.08943398
11 *2689:11 0.0880013

*RES
0 *150:Y *2689:11 1
1 *2689:4 *265:A3 1
2 *2689:4 *2689:3 0.2825
3 *2689:5 *2689:4 0.5
4 *2689:7 *151:A1 1
5 *2689:7 *2689:6 0.1991667
6 *2689:8 *2689:7 0.5
7 *2689:8 *2689:5 2.41875
8 *2689:10 *2689:9 0.5
9 *2689:9 *2689:8 1.333036
10 *2689:11 *2689:10 2.9375

*END

*D_NET *2691 0.4531944 //LENGTH 4.758 LUMPCC 0 DR

*CONN
*I *147:Y O *L 0 *C 5.456 24.304
*I *104:A1 I *L 0.484201 *C 6.672 24.152
*I *104:A2 I *L 0.515513 *C 6.824 24.912
*I *148:A I *L 0.582888 *C 5.304 25.976
*N *2691:4 *C 5.304 25.963
*N *2691:5 *C 5.304 24.152
*N *2691:6 *C 6.824 24.899
*N *2691:7 *C 6.824 24.152
*N *2691:8 *C 6.673 24.152
*N *2691:9 *C 6.659 24.152
*N *2691:10 *C 5.470 24.152
*N *2691:11 *C 5.456 24.165
*N *2691:12 *C 5.456 24.292

*CAP
0 *147:Y 0.001
1 *104:A1 0.001
2 *104:A2 0.001
3 *148:A 0.001
4 *2691:4 0.08255316
5 *2691:5 0.09478471
6 *2691:6 0.03777825
7 *2691:7 0.05032705
8 *2691:8 0.002566782
9 *2691:9 0.07152325
10 *2691:10 0.07152325
11 *2691:11 0.02399865
12 *2691:12 0.01413931

*RES
0 *147:Y *2691:12 1
1 *2691:6 *104:A2 1
2 *2691:8 *104:A1 1
3 *2691:8 *2691:7 0.2696429
4 *2691:12 *2691:11 0.2116667
5 *2691:9 *2691:8 0.5
6 *2691:11 *2691:10 0.5
7 *2691:11 *2691:5 0.2714286
8 *2691:10 *2691:9 2.123214
9 *2691:4 *148:A 1
10 *2691:5 *2691:4 3.233036
11 *2691:7 *2691:6 1.333036

*END

*D_NET *2693 0.3982731 //LENGTH 4.319 LUMPCC 0 DR

*CONN
*I *145:Y O *L 0 *C 6.216 20.960
*I *297:A2 I *L 0.515513 *C 6.672 21.872
*I *297:A1 I *L 0.484201 *C 6.520 22.632
*I *146:A I *L 0.582888 *C 5.304 22.632
*N *2693:4 *C 5.304 22.450
*N *2693:5 *C 5.304 22.620
*N *2693:6 *C 5.317 22.632
*N *2693:7 *C 6.506 22.632
*N *2693:8 *C 6.521 22.632
*N *2693:9 *C 6.672 22.632
*N *2693:10 *C 6.672 21.886
*N *2693:11 *C 6.672 21.733
*N *2693:12 *C 6.659 21.720
*N *2693:13 *C 6.230 21.720
*N *2693:14 *C 6.216 21.707
*N *2693:15 *C 6.216 20.974

*CAP
0 *145:Y 0.001
1 *297:A2 0.001
2 *297:A1 0.001
3 *146:A 0.001
4 *2693:4 0.01306629
5 *2693:5 0.006889177
6 *2693:6 0.0498143
7 *2693:7 0.0498143
8 *2693:8 0.002620378
9 *2693:9 0.05955425
10 *2693:10 0.06432577
11 *2693:11 0.0150017
12 *2693:12 0.01834135
13 *2693:13 0.01834135
14 *2693:14 0.04896845
15 *2693:15 0.04753577

*RES
0 *145:Y *2693:15 1
1 *2693:10 *297:A2 1
2 *2693:10 *2693:9 1.333036
3 *2693:8 *297:A1 1
4 *2693:8 *2693:7 0.5
5 *2693:11 *2693:10 0.255
6 *2693:12 *2693:11 0.5
7 *2693:14 *2693:13 0.5
8 *2693:13 *2693:12 0.7660714
9 *2693:15 *2693:14 1.308929
10 *2693:7 *2693:6 2.123214
11 *2693:5 *146:A 1
12 *2693:5 *2693:4 0.2825
13 *2693:6 *2693:5 0.5
14 *2693:9 *2693:8 0.2696429

*END

*D_NET *2697 0.4589566 //LENGTH 5.335 LUMPCC 0 DR

*CONN
*I *141:Y O *L 0 *C 5.456 14.272
*I *311:A2 I *L 0.515513 *C 6.368 15.184
*I *311:A1 I *L 0.484201 *C 6.216 15.944
*I *142:A I *L 0.582888 *C 5.456 17.464
*N *2697:4 *C 5.456 17.451
*N *2697:5 *C 6.216 15.931
*N *2697:6 *C 6.368 15.198
*N *2697:7 *C 6.368 15.336
*N *2697:8 *C 6.216 15.336
*N *2697:9 *C 6.203 15.336
*N *2697:10 *C 5.470 15.336
*N *2697:11 *C 5.456 15.336
*N *2697:12 *C 5.456 14.286

*CAP
0 *141:Y 0.001
1 *311:A2 0.001
2 *311:A1 0.001
3 *142:A 0.001
4 *2697:4 0.08695588
5 *2697:5 0.03881677
6 *2697:6 0.01103714
7 *2697:7 0.02289861
8 *2697:8 0.04830603
9 *2697:9 0.03038102
10 *2697:10 0.03038102
11 *2697:11 0.1391868
12 *2697:12 0.04699334

*RES
0 *141:Y *2697:12 1
1 *2697:6 *311:A2 1
2 *2697:5 *311:A1 1
3 *2697:4 *142:A 1
4 *2697:8 *2697:7 0.2714286
5 *2697:8 *2697:5 1.061607
6 *2697:9 *2697:8 0.5
7 *2697:11 *2697:10 0.5
8 *2697:11 *2697:4 3.775893
9 *2697:10 *2697:9 1.308929
10 *2697:12 *2697:11 1.875893
11 *2697:7 *2697:6 0.2473214

*END

*D_NET *2700 0.6491266 //LENGTH 6.766 LUMPCC 0 DR

*CONN
*I *203:Y O *L 0 *C 11.202 9.104
*I *209:A1 I *L 0.484201 *C 8.040 7.432
*I *209:A2 I *L 0.515513 *C 8.192 8.192
*I *204:A I *L 0.582888 *C 7.432 9.256
*N *2700:4 *C 7.432 9.074
*N *2700:5 *C 7.432 9.244
*N *2700:6 *C 7.446 9.256
*N *2700:7 *C 8.192 8.178
*N *2700:8 *C 8.192 8.040
*N *2700:9 *C 8.040 7.446
*N *2700:10 *C 8.040 8.040
*N *2700:11 *C 8.040 9.242
*N *2700:12 *C 8.040 9.256
*N *2700:13 *C 10.915 9.256
*N *2700:14 *C 10.928 9.242
*N *2700:15 *C 10.928 9.105
*N *2700:16 *C 10.928 9.104

*CAP
0 *203:Y 0.02212188
1 *209:A1 0.001
2 *209:A2 0.001
3 *204:A 0.001
4 *2700:4 0.01283093
5 *2700:5 0.006653811
6 *2700:6 0.02407262
7 *2700:7 0.01071581
8 *2700:8 0.02310378
9 *2700:9 0.02516905
10 *2700:10 0.09654491
11 *2700:11 0.05661566
12 *2700:12 0.1714371
13 *2700:13 0.1449923
14 *2700:14 0.01071039
15 *2700:15 0.01100721
16 *2700:16 0.03015114

*RES
0 *203:Y *2700:16 0.548
1 *2700:14 *2700:13 0.5
2 *2700:13 *2700:12 5.133037
3 *2700:16 *2700:15 1
4 *2700:15 *2700:14 0.2455357
5 *2700:7 *209:A2 1
6 *2700:11 *2700:10 2.147322
7 *2700:12 *2700:11 0.5
8 *2700:12 *2700:6 1.061607
9 *2700:9 *209:A1 1
10 *2700:5 *204:A 1
11 *2700:5 *2700:4 0.2825
12 *2700:6 *2700:5 0.5
13 *2700:10 *2700:9 1.061607
14 *2700:10 *2700:8 0.2714286
15 *2700:8 *2700:7 0.2473214

*END

*D_NET *2703 5.28157 //LENGTH 53.480 LUMPCC 0 DR

*CONN
*I *161:Y O *L 0 *C 9.408 40.720
*I *166:A5 I *L 0.542358 *C 6.976 36.160
*I *214:A5 I *L 0.542358 *C 8.800 36.160
*I *87:A5 I *L 0.542358 *C 7.888 27.344
*I *297:A5 I *L 0.542358 *C 7.280 22.784
*I *310:A5 I *L 0.542358 *C 6.368 19.440
*I *311:A5 I *L 0.542358 *C 6.976 16.096
*I *205:A5 I *L 0.542358 *C 6.216 10.624
*I *212:A1 I *L 0.601783 *C 8.648 9.104
*I *504:A5 I *L 0.542358 *C 11.688 6.064
*I *209:A5 I *L 0.542358 *C 8.800 7.280
*I *104:A5 I *L 0.542358 *C 7.432 24.000
*I *78:A5 I *L 0.542358 *C 6.976 39.504
*I *74:A5 I *L 0.542358 *C 9.256 42.848
*N *2703:14 *C 9.256 42.835
*N *2703:15 *C 6.976 39.492
*N *2703:16 *C 6.976 39.352
*N *2703:17 *C 6.990 39.352
*N *2703:18 *C 7.432 24.014
*N *2703:19 *C 8.800 7.293
*N *2703:20 *C 11.688 6.078
*N *2703:21 *C 11.688 7.419
*N *2703:22 *C 11.675 7.432
*N *2703:23 *C 8.814 7.432
*N *2703:24 *C 8.800 7.446
*N *2703:25 *C 8.800 8.648
*N *2703:26 *C 8.648 8.648
*N *2703:27 *C 8.648 9.104
*N *2703:28 *C 8.648 10.763
*N *2703:29 *C 8.635 10.776
*N *2703:30 *C 6.216 10.624
*N *2703:31 *C 6.216 10.764
*N *2703:32 *C 6.230 10.776
*N *2703:33 *C 7.280 10.776
*N *2703:34 *C 7.280 10.790
*N *2703:35 *C 6.976 16.084
*N *2703:36 *C 6.976 15.944
*N *2703:37 *C 6.990 15.944
*N *2703:38 *C 7.267 15.944
*N *2703:39 *C 7.280 15.944
*N *2703:40 *C 6.368 19.428
*N *2703:41 *C 6.368 19.288
*N *2703:42 *C 6.381 19.288
*N *2703:43 *C 7.267 19.288
*N *2703:44 *C 7.280 19.288
*N *2703:45 *C 7.280 22.784
*N *2703:46 *C 7.280 24.152
*N *2703:47 *C 7.432 24.152
*N *2703:48 *C 7.888 24.152
*N *2703:49 *C 7.888 27.344
*N *2703:50 *C 7.888 28.712
*N *2703:51 *C 7.736 28.712
*N *2703:52 *C 7.736 31.600
*N *2703:53 *C 7.280 31.600
*N *2703:54 *C 8.800 36.174
*N *2703:55 *C 8.800 36.602
*N *2703:56 *C 8.787 36.616
*N *2703:57 *C 6.976 36.174
*N *2703:58 *C 6.976 36.602
*N *2703:59 *C 6.990 36.616
*N *2703:60 *C 7.280 36.616
*N *2703:61 *C 7.280 36.616
*N *2703:62 *C 7.280 39.339
*N *2703:63 *C 7.280 39.352
*N *2703:64 *C 9.242 39.352
*N *2703:65 *C 9.256 39.366
*N *2703:66 *C 9.256 40.568
*N *2703:67 *C 9.408 40.568
*N *2703:68 *C 9.408 40.707

*CAP
0 *161:Y 0.001
1 *166:A5 0.001
2 *214:A5 0.001
3 *87:A5 0.001
4 *297:A5 0.001
5 *310:A5 0.001
6 *311:A5 0.001
7 *205:A5 0.001
8 *212:A1 0.001
9 *504:A5 0.001
10 *209:A5 0.001
11 *104:A5 0.001
12 *78:A5 0.001
13 *74:A5 0.001
14 *2703:14 0.1272065
15 *2703:15 0.01634154
16 *2703:16 0.01777422
17 *2703:17 0.01474317
18 *2703:18 0.007889696
19 *2703:19 0.01424296
20 *2703:20 0.07377682
21 *2703:21 0.0752095
22 *2703:22 0.1155857
23 *2703:23 0.1155857
24 *2703:24 0.106407
25 *2703:25 0.09935711
26 *2703:26 0.03695461
27 *2703:27 0.1180793
28 *2703:28 0.0911831
29 *2703:29 0.05685322
30 *2703:30 0.01614346
31 *2703:31 0.01757614
32 *2703:32 0.04173546
33 *2703:33 0.1009609
34 *2703:34 0.3088541
35 *2703:35 0.01026301
36 *2703:36 0.01169569
37 *2703:37 0.0150392
38 *2703:38 0.0150392
39 *2703:39 0.4619372
40 *2703:40 0.008708141
41 *2703:41 0.01014082
42 *2703:42 0.04574678
43 *2703:43 0.04574678
44 *2703:44 0.3237123
45 *2703:45 0.2339181
46 *2703:46 0.07221627
47 *2703:47 0.03934196
48 *2703:48 0.1702831
49 *2703:49 0.2112696
50 *2703:50 0.07342884
51 *2703:51 0.1780401
52 *2703:52 0.1913439
53 *2703:53 0.2675019
54 *2703:54 0.03496466
55 *2703:55 0.03639734
56 *2703:56 0.06393398
57 *2703:57 0.02948076
58 *2703:58 0.03091344
59 *2703:59 0.01315018
60 *2703:60 0.07945638
61 *2703:61 0.3858227
62 *2703:62 0.1401094
63 *2703:63 0.1035323
64 *2703:64 0.08641688
65 *2703:65 0.06513489
66 *2703:66 0.2071059
67 *2703:67 0.02285516
68 *2703:68 0.0104629

*RES
0 *161:Y *2703:68 1
1 *2703:68 *2703:67 0.2473214
2 *2703:14 *74:A5 1
3 *2703:19 *209:A5 1
4 *2703:24 *2703:23 0.5
5 *2703:24 *2703:19 0.255
6 *2703:23 *2703:22 5.108929
7 *2703:21 *2703:20 2.394643
8 *2703:22 *2703:21 0.5
9 *2703:20 *504:A5 1
10 *2703:27 *212:A1 1
11 *2703:27 *2703:26 0.8142858
12 *2703:49 *87:A5 1
13 *2703:49 *2703:48 5.700001
14 *2703:18 *104:A5 1
15 *2703:65 *2703:64 0.5
16 *2703:64 *2703:63 3.504464
17 *2703:55 *2703:54 0.7660714
18 *2703:56 *2703:55 0.5
19 *2703:54 *214:A5 1
20 *2703:28 *2703:27 2.961607
21 *2703:29 *2703:28 0.5
22 *2703:62 *2703:61 4.861607
23 *2703:63 *2703:62 0.5
24 *2703:63 *2703:17 0.5187501
25 *2703:61 *2703:60 0.5
26 *2703:61 *2703:53 8.957144
27 *2703:60 *2703:59 0.5187501
28 *2703:60 *2703:56 2.690179
29 *2703:45 *297:A5 1
30 *2703:45 *2703:44 6.242857
31 *2703:34 *2703:33 0.5
32 *2703:33 *2703:32 1.875893
33 *2703:33 *2703:29 2.41875
34 *2703:16 *2703:15 0.2325
35 *2703:17 *2703:16 0.5
36 *2703:15 *78:A5 1
37 *2703:58 *2703:57 0.7660714
38 *2703:59 *2703:58 0.5
39 *2703:57 *166:A5 1
40 *2703:39 *2703:38 0.5
41 *2703:39 *2703:34 9.204465
42 *2703:38 *2703:37 0.4946429
43 *2703:36 *2703:35 0.2325
44 *2703:37 *2703:36 0.5
45 *2703:35 *311:A5 1
46 *2703:44 *2703:43 0.5
47 *2703:44 *2703:39 5.971429
48 *2703:43 *2703:42 1.580357
49 *2703:41 *2703:40 0.2325
50 *2703:42 *2703:41 0.5
51 *2703:40 *310:A5 1
52 *2703:31 *2703:30 0.2325
53 *2703:32 *2703:31 0.5
54 *2703:30 *205:A5 1
55 *2703:46 *2703:45 2.442857
56 *2703:47 *2703:46 0.2714286
57 *2703:47 *2703:18 0.2473214
58 *2703:48 *2703:47 0.8142858
59 *2703:53 *2703:52 0.8142858
60 *2703:52 *2703:51 5.157144
61 *2703:51 *2703:50 0.2714286
62 *2703:50 *2703:49 2.442857
63 *2703:26 *2703:25 0.2714286
64 *2703:25 *2703:24 2.147322
65 *2703:66 *2703:65 2.147322
66 *2703:66 *2703:14 4.047322
67 *2703:67 *2703:66 0.2714286

*END

*D_NET *2715 0.5394602 //LENGTH 4.671 LUMPCC 0 DR

*CONN
*I *226:Q O *L 0 *C 8.648 24.456
*I *104:A4 I *L 0.514778 *C 6.976 24.304
*I *147:A2 I *L 0.466516 *C 5.760 24.152
*N *2715:3 *C 5.760 24.151
*N *2715:4 *C 5.760 23.861
*N *2715:5 *C 5.774 23.848
*N *2715:6 *C 6.976 24.291
*N *2715:7 *C 6.976 23.861
*N *2715:8 *C 6.976 23.848
*N *2715:9 *C 8.635 23.848
*N *2715:10 *C 8.648 23.861
*N *2715:11 *C 8.648 24.443

*CAP
0 *226:Q 0.001
1 *104:A4 0.001
2 *147:A2 0.001
3 *2715:3 0.02154184
4 *2715:4 0.02280157
5 *2715:5 0.07031406
6 *2715:6 0.02602249
7 *2715:7 0.02745517
8 *2715:8 0.1890025
9 *2715:9 0.1163162
10 *2715:10 0.03221946
11 *2715:11 0.03078678

*RES
0 *226:Q *2715:11 1
1 *2715:10 *2715:9 0.5
2 *2715:9 *2715:8 2.961607
3 *2715:11 *2715:10 1.0375
4 *2715:7 *2715:6 0.7660715
5 *2715:8 *2715:7 0.5
6 *2715:8 *2715:5 2.147322
7 *2715:6 *104:A4 1
8 *2715:4 *2715:3 0.5169643
9 *2715:5 *2715:4 0.5
10 *2715:3 *147:A2 1

*END

*D_NET *2719 0.9357795 //LENGTH 9.560 LUMPCC 0 DR

*CONN
*I *234:Q O *L 0 *C 7.432 14.424
*I *205:A4 I *L 0.514778 *C 6.672 10.928
*I *139:A4 I *L 0.565045 *C 10.168 9.256
*N *2719:3 *C 10.168 9.270
*N *2719:4 *C 10.168 11.370
*N *2719:5 *C 10.155 11.384
*N *2719:6 *C 6.672 10.942
*N *2719:7 *C 6.672 11.370
*N *2719:8 *C 6.686 11.384
*N *2719:9 *C 7.432 11.384
*N *2719:10 *C 7.432 11.398
*N *2719:11 *C 7.432 14.411

*CAP
0 *234:Q 0.001
1 *205:A4 0.001
2 *139:A4 0.001
3 *2719:3 0.1022519
4 *2719:4 0.1036846
5 *2719:5 0.1183854
6 *2719:6 0.02465486
7 *2719:7 0.02608753
8 *2719:8 0.03291014
9 *2719:9 0.1536678
10 *2719:10 0.186285
11 *2719:11 0.1848523

*RES
0 *234:Q *2719:11 1
1 *2719:4 *2719:3 3.751786
2 *2719:5 *2719:4 0.5
3 *2719:3 *139:A4 1
4 *2719:10 *2719:9 0.5
5 *2719:9 *2719:8 1.333036
6 *2719:9 *2719:5 4.861607
7 *2719:11 *2719:10 5.380357
8 *2719:7 *2719:6 0.7660715
9 *2719:8 *2719:7 0.5
10 *2719:6 *205:A4 1

*END

*D_NET *2723 0.4951203 //LENGTH 5.169 LUMPCC 0 DR

*CONN
*I *295:Y O *L 0 *C 42.240 17.920
*I *244:D I *L 0.543562 *C 39.200 16.096
*N *2723:2 *C 39.200 16.110
*N *2723:3 *C 39.200 16.538
*N *2723:4 *C 39.214 16.552
*N *2723:5 *C 42.227 16.552
*N *2723:6 *C 42.240 16.566
*N *2723:7 *C 42.240 17.919

*CAP
0 *295:Y 0.001
1 *244:D 0.001
2 *2723:2 0.02911665
3 *2723:3 0.03054933
4 *2723:4 0.1377958
5 *2723:5 0.1377958
6 *2723:6 0.0796477
7 *2723:7 0.07821503

*RES
0 *295:Y *2723:7 1
1 *2723:2 *244:D 1
2 *2723:3 *2723:2 0.7660714
3 *2723:4 *2723:3 0.5
4 *2723:6 *2723:5 0.5
5 *2723:5 *2723:4 5.380358
6 *2723:7 *2723:6 2.416965

*END

*D_NET *2724 0.6933582 //LENGTH 5.199 LUMPCC 0 DR

*CONN
*I *330:Y O *L 0 *C 34.488 24.304
*I *249:D I *L 0.543562 *C 38.744 24.000
*N *2724:2 *C 38.744 23.988
*N *2724:3 *C 38.744 23.848
*N *2724:4 *C 38.730 23.848
*N *2724:5 *C 34.502 23.848
*N *2724:6 *C 34.488 23.861
*N *2724:7 *C 34.488 24.291

*CAP
0 *330:Y 0.001
1 *249:D 0.001
2 *2724:2 0.01514641
3 *2724:3 0.01657909
4 *2724:4 0.3028103
5 *2724:5 0.3028103
6 *2724:6 0.02772238
7 *2724:7 0.0262897

*RES
0 *330:Y *2724:7 1
1 *2724:2 *249:D 1
2 *2724:3 *2724:2 0.2325
3 *2724:4 *2724:3 0.5
4 *2724:6 *2724:5 0.5
5 *2724:5 *2724:4 7.551786
6 *2724:7 *2724:6 0.7660715

*END

*D_NET *2728 0.8824563 //LENGTH 7.504 LUMPCC 0 DR

*CONN
*I *318:Y O *L 0 *C 26.098 44.368
*I *240:D I *L 0.543562 *C 23.848 39.504
*N *2728:2 *C 23.848 39.504
*N *2728:3 *C 23.848 39.644
*N *2728:4 *C 23.861 39.656
*N *2728:5 *C 25.659 39.656
*N *2728:6 *C 25.672 39.669
*N *2728:7 *C 25.672 44.355
*N *2728:8 *C 25.687 44.368

*CAP
0 *318:Y 0.02992839
1 *240:D 0.001
2 *2728:2 0.01548443
3 *2728:3 0.01691711
4 *2728:4 0.07810125
5 *2728:5 0.07810125
6 *2728:6 0.317387
7 *2728:7 0.3176838
8 *2728:8 0.027853

*RES
0 *318:Y *2728:8 0.8220001
1 *2728:2 *240:D 1
2 *2728:3 *2728:2 0.2325
3 *2728:4 *2728:3 0.5
4 *2728:6 *2728:5 0.5
5 *2728:5 *2728:4 3.208929
6 *2728:8 *2728:7 1
7 *2728:7 *2728:6 8.366073

*END

*D_NET *2733 0.2435672 //LENGTH 2.164 LUMPCC 0 DR

*CONN
*I *293:Y O *L 0 *C 40.264 20.960
*I *250:D I *L 0.543562 *C 38.744 20.656
*N *2733:2 *C 38.744 20.656
*N *2733:3 *C 38.744 20.796
*N *2733:4 *C 38.758 20.808
*N *2733:5 *C 40.251 20.808
*N *2733:6 *C 40.264 20.808
*N *2733:7 *C 40.264 20.948

*CAP
0 *293:Y 0.001
1 *250:D 0.001
2 *2733:2 0.01510915
3 *2733:3 0.01654183
4 *2733:4 0.09176731
5 *2733:5 0.09176731
6 *2733:6 0.01390712
7 *2733:7 0.01247444

*RES
0 *293:Y *2733:7 1
1 *2733:2 *250:D 1
2 *2733:3 *2733:2 0.2325
3 *2733:4 *2733:3 0.5
4 *2733:6 *2733:5 0.5
5 *2733:5 *2733:4 2.666071
6 *2733:7 *2733:6 0.2325

*END

*D_NET *2737 0.3662832 //LENGTH 4.257 LUMPCC 0 DR

*CONN
*I *505:Y O *L 0 *C 26.736 34.640
*I *339:D I *L 0.543569 *C 27.952 37.376
*N *2737:2 *C 27.952 37.363
*N *2737:3 *C 27.952 36.630
*N *2737:4 *C 27.939 36.616
*N *2737:5 *C 26.750 36.616
*N *2737:6 *C 26.736 36.602
*N *2737:7 *C 26.736 34.641

*CAP
0 *505:Y 0.001
1 *339:D 0.001
2 *2737:2 0.03377412
3 *2737:3 0.0352068
4 *2737:4 0.04874954
5 *2737:5 0.04874954
6 *2737:6 0.09961794
7 *2737:7 0.09818526

*RES
0 *505:Y *2737:7 1
1 *2737:2 *339:D 1
2 *2737:3 *2737:2 1.308929
3 *2737:4 *2737:3 0.5
4 *2737:6 *2737:5 0.5
5 *2737:5 *2737:4 2.123214
6 *2737:7 *2737:6 3.502679

*END

*D_NET *2741 0.298485 //LENGTH 3.000 LUMPCC 0 DR

*CONN
*I *257:Y O *L 0 *C 46.940 19.136
*I *264:A2 I *L 0.570549 *C 46.648 21.568
*N *2741:2 *C 46.648 21.555
*N *2741:3 *C 46.648 20.808
*N *2741:4 *C 46.800 20.808
*N *2741:5 *C 46.800 19.149
*N *2741:6 *C 46.812 19.136

*CAP
0 *257:Y 0.01387377
1 *264:A2 0.001
2 *2741:2 0.04081583
3 *2741:3 0.05263203
4 *2741:4 0.09422582
5 *2741:5 0.08413912
6 *2741:6 0.01179837

*RES
0 *257:Y *2741:6 0.2116667
1 *2741:2 *264:A2 1
2 *2741:6 *2741:5 1
3 *2741:5 *2741:4 2.961607
4 *2741:3 *2741:2 1.333036
5 *2741:4 *2741:3 0.2714286

*END

*D_NET *2745 0.9892867 //LENGTH 9.693 LUMPCC 0 DR

*CONN
*I *273:Y O *L 0 *C 32.208 30.688
*I *277:A5 I *L 0.583269 *C 29.624 34.184
*I *505:A1 I *L 0.514394 *C 28.104 34.336
*I *505:A3 I *L 0.507548 *C 27.648 33.576
*N *2745:4 *C 27.648 33.758
*N *2745:5 *C 27.648 33.589
*N *2745:6 *C 27.662 33.576
*N *2745:7 *C 28.104 34.323
*N *2745:8 *C 28.104 33.590
*N *2745:9 *C 28.104 33.576
*N *2745:10 *C 29.624 34.183
*N *2745:11 *C 29.624 33.590
*N *2745:12 *C 29.624 33.576
*N *2745:13 *C 30.219 33.576
*N *2745:14 *C 30.232 33.562
*N *2745:15 *C 30.232 31.462
*N *2745:16 *C 30.245 31.448
*N *2745:17 *C 32.195 31.448
*N *2745:18 *C 32.208 31.434
*N *2745:19 *C 32.208 30.702

*CAP
0 *273:Y 0.001
1 *277:A5 0.001
2 *505:A1 0.001
3 *505:A3 0.001
4 *2745:4 0.01491614
5 *2745:5 0.008739023
6 *2745:6 0.02246987
7 *2745:7 0.0398719
8 *2745:8 0.04130458
9 *2745:9 0.09561223
10 *2745:10 0.03950022
11 *2745:11 0.0409329
12 *2745:12 0.1023967
13 *2745:13 0.0292543
14 *2745:14 0.1383568
15 *2745:15 0.1383568
16 *2745:16 0.08469231
17 *2745:17 0.08469231
18 *2745:18 0.05281167
19 *2745:19 0.051379

*RES
0 *273:Y *2745:19 1
1 *2745:14 *2745:13 0.5
2 *2745:13 *2745:12 1.061607
3 *2745:15 *2745:14 3.751786
4 *2745:16 *2745:15 0.5
5 *2745:18 *2745:17 0.5
6 *2745:17 *2745:16 3.480357
7 *2745:19 *2745:18 1.308929
8 *2745:11 *2745:10 1.059821
9 *2745:12 *2745:11 0.5
10 *2745:12 *2745:9 2.714286
11 *2745:10 *277:A5 1
12 *2745:8 *2745:7 1.308929
13 *2745:9 *2745:8 0.5
14 *2745:9 *2745:6 0.7901786
15 *2745:7 *505:A1 1
16 *2745:5 *505:A3 1
17 *2745:5 *2745:4 0.2825
18 *2745:6 *2745:5 0.5

*END

*D_NET *2752 0.4734377 //LENGTH 4.217 LUMPCC 0 DR

*CONN
*I *283:Y O *L 0 *C 33.880 32.968
*I *284:A6 I *L 0.609639 *C 33.272 29.776
*N *2752:2 *C 33.272 29.777
*N *2752:3 *C 33.272 30.219
*N *2752:4 *C 33.285 30.232
*N *2752:5 *C 33.715 30.232
*N *2752:6 *C 33.728 30.245
*N *2752:7 *C 33.728 32.056
*N *2752:8 *C 33.880 32.056
*N *2752:9 *C 33.880 32.955

*CAP
0 *283:Y 0.001
1 *284:A6 0.001
2 *2752:2 0.02698932
3 *2752:3 0.028422
4 *2752:4 0.02913855
5 *2752:5 0.02913855
6 *2752:6 0.1248965
7 *2752:7 0.1362206
8 *2752:8 0.05469447
9 *2752:9 0.04193769

*RES
0 *283:Y *2752:9 1
1 *2752:2 *284:A6 1
2 *2752:3 *2752:2 0.7883929
3 *2752:4 *2752:3 0.5
4 *2752:6 *2752:5 0.5
5 *2752:5 *2752:4 0.7660714
6 *2752:9 *2752:8 1.604465
7 *2752:7 *2752:6 3.233036
8 *2752:8 *2752:7 0.2714286

*END

*D_NET *2754 0.5819473 //LENGTH 7.503 LUMPCC 0 DR

*CONN
*I *285:Y O *L 0 *C 23.076 27.648
*I *286:A2 I *L 0.466516 *C 25.827 30.867
*N *2754:2 *C 22.754 27.800
*N *2754:3 *C 25.490 30.840
*N *2754:4 *C 25.672 30.658
*N *2754:5 *C 25.684 30.840
*N *2754:6 *C 25.672 30.828
*N *2754:7 *C 25.660 30.840
*N *2754:8 *C 25.672 30.827
*N *2754:9 *C 25.672 30.550
*N *2754:10 *C 25.659 30.536
*N *2754:11 *C 22.950 30.536
*N *2754:12 *C 22.936 30.523
*N *2754:13 *C 22.936 27.814
*N *2754:14 *C 22.924 27.800
*N *2754:15 *C 22.936 27.788
*N *2754:16 *C 22.936 27.648
*N *2754:17 *C 22.949 27.648

*CAP
0 *285:Y 0.01503399
1 *286:A2 0.01346199
2 *2754:2 0.01292571
3 *2754:3 0.01454832
4 *2754:4 0.018187
5 *2754:5 0.01138659
6 *2754:6 0.01373939
7 *2754:7 0.009804433
8 *2754:8 0.01406861
9 *2754:9 0.01406914
10 *2754:10 0.0917127
11 *2754:11 0.0917127
12 *2754:12 0.109197
13 *2754:13 0.1091965
14 *2754:14 0.00818182
15 *2754:15 0.01073302
16 *2754:16 0.01102984
17 *2754:17 0.01295859

*RES
0 *285:Y *2754:17 0.2116667
1 *2754:5 *286:A2 0.2366667
2 *2754:6 *2754:5 1
3 *2754:6 *2754:4 0.2825
4 *2754:7 *2754:6 0.5
5 *2754:7 *2754:3 0.2825
6 *2754:8 *2754:7 0.5
7 *2754:9 *2754:8 0.4946429
8 *2754:10 *2754:9 0.5
9 *2754:12 *2754:11 0.5
10 *2754:11 *2754:10 4.8375
11 *2754:14 *2754:13 0.5
12 *2754:14 *2754:2 0.2825
13 *2754:13 *2754:12 4.837501
14 *2754:15 *2754:14 0.5
15 *2754:17 *2754:16 1
16 *2754:16 *2754:15 0.2325

*END

*D_NET *2759 0.192791 //LENGTH 1.855 LUMPCC 0 DR

*CONN
*I *292:Y O *L 0 *C 41.784 21.264
*I *293:A3 I *L 0.519105 *C 40.872 20.960
*N *2759:2 *C 40.872 20.948
*N *2759:3 *C 40.872 20.808
*N *2759:4 *C 40.886 20.808
*N *2759:5 *C 41.771 20.808
*N *2759:6 *C 41.784 20.822
*N *2759:7 *C 41.784 21.251

*CAP
0 *292:Y 0.001
1 *293:A3 0.001
2 *2759:2 0.008048047
3 *2759:3 0.009480726
4 *2759:4 0.0575214
5 *2759:5 0.0575214
6 *2759:6 0.02982603
7 *2759:7 0.02839335

*RES
0 *292:Y *2759:7 1
1 *2759:2 *293:A3 1
2 *2759:3 *2759:2 0.2325
3 *2759:4 *2759:3 0.5
4 *2759:6 *2759:5 0.5
5 *2759:5 *2759:4 1.580357
6 *2759:7 *2759:6 0.7660714

*END

*D_NET *2763 1.210146 //LENGTH 12.681 LUMPCC 0 DR

*CONN
*I *253:Y O *L 0 *C 43.456 14.120
*I *267:A I *L 0.582888 *C 44.824 19.288
*I *257:A1 I *L 0.549073 *C 46.800 18.984
*I *298:A2 I *L 0.509119 *C 46.648 17.768
*I *296:A2 I *L 0.578798 *C 45.584 17.464
*N *2763:5 *C 45.584 17.451
*N *2763:6 *C 45.584 17.174
*N *2763:7 *C 45.598 17.160
*N *2763:8 *C 46.635 17.160
*N *2763:9 *C 46.648 17.174
*N *2763:10 *C 46.648 17.768
*N *2763:11 *C 46.648 18.059
*N *2763:12 *C 46.648 18.073
*N *2763:13 *C 46.800 18.756
*N *2763:14 *C 46.800 18.983
*N *2763:15 *C 46.799 18.984
*N *2763:16 *C 46.648 18.984
*N *2763:17 *C 44.824 19.274
*N *2763:18 *C 44.824 18.998
*N *2763:19 *C 44.824 18.984
*N *2763:20 *C 43.470 18.984
*N *2763:21 *C 43.456 18.971
*N *2763:22 *C 43.456 14.134

*CAP
0 *253:Y 0.001
1 *267:A 0.001
2 *257:A1 0.001
3 *298:A2 0.001
4 *296:A2 0.001
5 *2763:5 0.02104467
6 *2763:6 0.02247735
7 *2763:7 0.05169763
8 *2763:8 0.05169763
9 *2763:9 0.04067905
10 *2763:10 0.06352342
11 *2763:11 0.02190483
12 *2763:12 0.03165602
13 *2763:13 0.01873801
14 *2763:14 0.01256089
15 *2763:15 0.003762651
16 *2763:16 0.1037702
17 *2763:17 0.02391678
18 *2763:18 0.02534945
19 *2763:19 0.1127598
20 *2763:20 0.04915271
21 *2763:21 0.2759438
22 *2763:22 0.2745111

*RES
0 *253:Y *2763:22 1
1 *2763:14 *257:A1 1
2 *2763:14 *2763:13 0.4053571
3 *2763:15 *2763:14 0.5
4 *2763:11 *2763:10 0.5187501
5 *2763:12 *2763:11 0.5
6 *2763:10 *298:A2 1
7 *2763:10 *2763:9 1.061607
8 *2763:9 *2763:8 0.5
9 *2763:8 *2763:7 1.851786
10 *2763:6 *2763:5 0.4946428
11 *2763:7 *2763:6 0.5
12 *2763:5 *296:A2 1
13 *2763:18 *2763:17 0.4946429
14 *2763:19 *2763:18 0.5
15 *2763:19 *2763:16 3.257143
16 *2763:17 *267:A 1
17 *2763:21 *2763:20 0.5
18 *2763:20 *2763:19 2.41875
19 *2763:22 *2763:21 8.637501
20 *2763:16 *2763:15 0.2696429
21 *2763:16 *2763:12 1.626786

*END

*D_NET *2769 0.5255007 //LENGTH 4.524 LUMPCC 0 DR

*CONN
*I *294:Y O *L 0 *C 46.952 16.096
*I *202:A3 I *L 0.518192 *C 45.584 13.512
*I *302:A5 I *L 0.557577 *C 45.736 15.944
*N *2769:3 *C 45.723 15.944
*N *2769:4 *C 45.584 13.526
*N *2769:5 *C 45.584 15.944
*N *2769:6 *C 45.598 15.944
*N *2769:7 *C 46.939 15.944
*N *2769:8 *C 46.952 15.944
*N *2769:9 *C 46.952 16.084

*CAP
0 *294:Y 0.001
1 *202:A3 0.001
2 *302:A5 0.001
3 *2769:3 0.007226238
4 *2769:4 0.1735259
5 *2769:5 0.1859898
6 *2769:6 0.06094405
7 *2769:7 0.06094405
8 *2769:8 0.01765166
9 *2769:9 0.01621899

*RES
0 *294:Y *2769:9 1
1 *2769:3 *302:A5 1
2 *2769:5 *2769:4 4.31875
3 *2769:5 *2769:3 0.2473214
4 *2769:6 *2769:5 0.5
5 *2769:8 *2769:7 0.5
6 *2769:7 *2769:6 2.394643
7 *2769:9 *2769:8 0.2325
8 *2769:4 *202:A3 1

*END

*D_NET *2773 0.313051 //LENGTH 3.066 LUMPCC 0 DR

*CONN
*I *314:Y O *L 0 *C 34.336 41.024
*I *315:A3 I *L 0.656896 *C 35.248 42.848
*N *2773:2 *C 35.248 42.835
*N *2773:3 *C 35.248 41.797
*N *2773:4 *C 35.235 41.784
*N *2773:5 *C 34.349 41.784
*N *2773:6 *C 34.336 41.771
*N *2773:7 *C 34.336 41.038

*CAP
0 *314:Y 0.001
1 *315:A3 0.001
2 *2773:2 0.06102675
3 *2773:3 0.06245943
4 *2773:4 0.05075118
5 *2773:5 0.05075118
6 *2773:6 0.04374758
7 *2773:7 0.0423149

*RES
0 *314:Y *2773:7 1
1 *2773:2 *315:A3 1
2 *2773:3 *2773:2 1.851786
3 *2773:4 *2773:3 0.5
4 *2773:6 *2773:5 0.5
5 *2773:5 *2773:4 1.580357
6 *2773:7 *2773:6 1.308929

*END

*D_NET *2775 0.515501 //LENGTH 5.847 LUMPCC 0 DR

*CONN
*I *261:Y O *L 0 *C 32.664 42.696
*I *315:A1 I *L 0.521202 *C 35.704 42.696
*I *262:A1 I *L 0.549073 *C 36.312 41.176
*N *2775:3 *C 32.664 42.514
*N *2775:4 *C 36.312 41.177
*N *2775:5 *C 36.312 42.683
*N *2775:6 *C 36.299 42.696
*N *2775:7 *C 35.704 42.514
*N *2775:8 *C 35.704 42.684
*N *2775:9 *C 35.704 42.696
*N *2775:10 *C 32.678 42.696
*N *2775:11 *C 32.664 42.684

*CAP
0 *261:Y 0.001
1 *315:A1 0.001
2 *262:A1 0.001
3 *2775:3 0.01819895
4 *2775:4 0.07670401
5 *2775:5 0.07813669
6 *2775:6 0.02346599
7 *2775:7 0.01497991
8 *2775:8 0.008802791
9 *2775:9 0.1530145
10 *2775:10 0.1271763
11 *2775:11 0.01202183

*RES
0 *261:Y *2775:11 1
1 *2775:5 *2775:4 2.688393
2 *2775:6 *2775:5 0.5
3 *2775:4 *262:A1 1
4 *2775:8 *315:A1 1
5 *2775:8 *2775:7 0.2825
6 *2775:9 *2775:8 0.5
7 *2775:9 *2775:6 1.061607
8 *2775:11 *2775:10 0.5
9 *2775:11 *2775:3 0.2825
10 *2775:10 *2775:9 5.404464

*END

*D_NET *2777 0.3249481 //LENGTH 3.457 LUMPCC 0 DR

*CONN
*I *316:Y O *L 0 *C 28.864 44.672
*I *318:A1 I *L 0.549073 *C 25.976 44.520
*N *2777:2 *C 25.976 44.388
*N *2777:3 *C 25.976 44.508
*N *2777:4 *C 25.989 44.520
*N *2777:5 *C 28.851 44.520
*N *2777:6 *C 28.864 44.520
*N *2777:7 *C 28.864 44.660

*CAP
0 *316:Y 0.001
1 *318:A1 0.001
2 *2777:2 0.01434992
3 *2777:3 0.006195955
4 *2777:4 0.1407763
5 *2777:5 0.1427531
6 *2777:6 0.01015278
7 *2777:7 0.008720102

*RES
0 *316:Y *2777:7 1
1 *2777:3 *318:A1 1
2 *2777:3 *2777:2 0.1991667
3 *2777:4 *2777:3 0.5
4 *2777:6 *2777:5 0.5
5 *2777:5 *2777:4 5.108929
6 *2777:7 *2777:6 0.2325

*END

*D_NET *2781 0.4160936 //LENGTH 3.679 LUMPCC 0 DR

*CONN
*I *323:Y O *L 0 *C 25.976 46.192
*I *324:A6 I *L 0.639573 *C 24.152 44.672
*N *2781:2 *C 24.152 44.686
*N *2781:3 *C 24.152 46.027
*N *2781:4 *C 24.166 46.040
*N *2781:5 *C 25.963 46.040
*N *2781:6 *C 25.976 46.040
*N *2781:7 *C 25.976 46.180

*CAP
0 *323:Y 0.001
1 *324:A6 0.001
2 *2781:2 0.1095519
3 *2781:3 0.1109846
4 *2781:4 0.08751706
5 *2781:5 0.08751706
6 *2781:6 0.009977858
7 *2781:7 0.008545179

*RES
0 *323:Y *2781:7 1
1 *2781:2 *324:A6 1
2 *2781:3 *2781:2 2.394643
3 *2781:4 *2781:3 0.5
4 *2781:6 *2781:5 0.5
5 *2781:5 *2781:4 3.208929
6 *2781:7 *2781:6 0.2325

*END

*D_NET *2782 0.2264028 //LENGTH 2.286 LUMPCC 0 DR

*CONN
*I *324:Y O *L 0 *C 23.544 43.912
*I *325:A3 I *L 0.532459 *C 22.328 43.304
*N *2782:2 *C 22.328 43.122
*N *2782:3 *C 22.328 43.291
*N *2782:4 *C 22.341 43.304
*N *2782:5 *C 23.530 43.304
*N *2782:6 *C 23.544 43.318
*N *2782:7 *C 23.544 43.899

*CAP
0 *324:Y 0.001
1 *325:A3 0.001
2 *2782:2 0.01438604
3 *2782:3 0.008208925
4 *2782:4 0.05926603
5 *2782:5 0.05926603
6 *2782:6 0.04235424
7 *2782:7 0.04092156

*RES
0 *324:Y *2782:7 1
1 *2782:3 *325:A3 1
2 *2782:3 *2782:2 0.2825
3 *2782:4 *2782:3 0.5
4 *2782:6 *2782:5 0.5
5 *2782:5 *2782:4 2.123214
6 *2782:7 *2782:6 1.0375

*END

*D_NET *2785 1.220805 //LENGTH 12.489 LUMPCC 0 DR

*CONN
*I *319:Y O *L 0 *C 31.600 40.720
*I *236:A3 I *L 0.518192 *C 27.952 40.264
*I *327:A4 I *L 0.552216 *C 27.832 42.392
*I *324:A4 I *L 0.513828 *C 24.760 44.368
*N *2785:4 *C 24.760 44.355
*N *2785:5 *C 24.760 43.925
*N *2785:6 *C 24.774 43.912
*N *2785:7 *C 28.091 43.912
*N *2785:8 *C 28.104 43.899
*N *2785:9 *C 28.089 42.392
*N *2785:10 *C 28.104 42.392
*N *2785:11 *C 27.953 40.264
*N *2785:12 *C 28.104 40.278
*N *2785:13 *C 28.117 40.264
*N *2785:14 *C 31.587 40.264
*N *2785:15 *C 31.600 40.278
*N *2785:16 *C 31.600 40.707

*CAP
0 *319:Y 0.001
1 *236:A3 0.001
2 *327:A4 0.02276038
3 *324:A4 0.001
4 *2785:4 0.02819687
5 *2785:5 0.02962955
6 *2785:6 0.1685535
7 *2785:7 0.1685535
8 *2785:8 0.07545672
9 *2785:9 0.02068498
10 *2785:10 0.2075181
11 *2785:11 0.005168014
12 *2785:12 0.1383653
13 *2785:13 0.1547421
14 *2785:14 0.1547421
15 *2785:15 0.02243316
16 *2785:16 0.02100048

*RES
0 *319:Y *2785:16 1
1 *2785:12 *2785:11 0.2696429
2 *2785:12 *2785:10 3.775893
3 *2785:13 *2785:12 0.5
4 *2785:15 *2785:14 0.5
5 *2785:14 *2785:13 6.194643
6 *2785:16 *2785:15 0.7660713
7 *2785:11 *236:A3 1
8 *2785:9 *327:A4 0.5140001
9 *2785:10 *2785:9 1
10 *2785:10 *2785:8 2.690179
11 *2785:8 *2785:7 0.5
12 *2785:7 *2785:6 5.923215
13 *2785:5 *2785:4 0.7660714
14 *2785:6 *2785:5 0.5
15 *2785:4 *324:A4 1

*END

*D_NET *2787 0.5607028 //LENGTH 5.456 LUMPCC 0 DR

*CONN
*I *326:Y O *L 0 *C 26.736 46.344
*I *327:A1 I *L 0.514394 *C 27.997 42.544
*N *2787:2 *C 27.952 42.544
*N *2787:3 *C 27.952 42.558
*N *2787:4 *C 27.952 42.986
*N *2787:5 *C 27.939 43.000
*N *2787:6 *C 26.750 43.000
*N *2787:7 *C 26.736 43.014
*N *2787:8 *C 26.736 46.331

*CAP
0 *326:Y 0.001
1 *327:A1 0.01118077
2 *2787:2 0.009105371
3 *2787:3 0.03393756
4 *2787:4 0.03364074
5 *2787:5 0.0607935
6 *2787:6 0.0607935
7 *2787:7 0.175842
8 *2787:8 0.1744093

*RES
0 *326:Y *2787:8 1
1 *2787:2 *327:A1 0.09166668
2 *2787:3 *2787:2 1
3 *2787:4 *2787:3 0.7660714
4 *2787:5 *2787:4 0.5
5 *2787:7 *2787:6 0.5
6 *2787:6 *2787:5 2.123214
7 *2787:8 *2787:7 5.923214

*END

*D_NET *2791 0.5278857 //LENGTH 5.707 LUMPCC 0 DR

*CONN
*I *328:Y O *L 0 *C 39.504 24.608
*I *330:A1 I *L 0.549073 *C 34.336 24.456
*N *2791:2 *C 34.336 24.324
*N *2791:3 *C 34.336 24.444
*N *2791:4 *C 34.349 24.456
*N *2791:5 *C 39.491 24.456
*N *2791:6 *C 39.504 24.470
*N *2791:7 *C 39.504 24.607

*CAP
0 *328:Y 0.001
1 *330:A1 0.001
2 *2791:2 0.01272595
3 *2791:3 0.004571989
4 *2791:4 0.2440715
5 *2791:5 0.2460483
6 *2791:6 0.009950314
7 *2791:7 0.008517635

*RES
0 *328:Y *2791:7 1
1 *2791:3 *330:A1 1
2 *2791:3 *2791:2 0.1991667
3 *2791:4 *2791:3 0.5
4 *2791:6 *2791:5 0.5
5 *2791:5 *2791:4 9.180358
6 *2791:7 *2791:6 0.2455357

*END

*D_NET *2794 0.5107192 //LENGTH 5.194 LUMPCC 0 DR

*CONN
*I *331:Y O *L 0 *C 43.608 19.440
*I *295:A3 I *L 0.507548 *C 41.328 16.856
*N *2794:2 *C 41.328 16.870
*N *2794:3 *C 41.328 18.363
*N *2794:4 *C 41.342 18.376
*N *2794:5 *C 43.595 18.376
*N *2794:6 *C 43.608 18.390
*N *2794:7 *C 43.608 19.427

*CAP
0 *331:Y 0.001
1 *295:A3 0.001
2 *2794:2 0.08670982
3 *2794:3 0.0881425
4 *2794:4 0.1019636
5 *2794:5 0.1019636
6 *2794:6 0.06568614
7 *2794:7 0.06425346

*RES
0 *331:Y *2794:7 1
1 *2794:2 *295:A3 1
2 *2794:3 *2794:2 2.666071
3 *2794:4 *2794:3 0.5
4 *2794:6 *2794:5 0.5
5 *2794:5 *2794:4 4.023215
6 *2794:7 *2794:6 1.851786

*END

*D_NET *2796 1.274775 //LENGTH 11.947 LUMPCC 0 DR

*CONN
*I *238:QN O *L 0 *C 30.992 30.248
*I *279:A3 I *L 0.536755 *C 32.512 32.360
*I *279:A1 I *L 0.483711 *C 31.904 32.664
*I *258:A3 I *L 0.584801 *C 32.694 34.361
*I *284:A2 I *L 0.52073 *C 34.032 29.472
*N *2796:5 *C 34.032 29.486
*N *2796:6 *C 34.032 30.523
*N *2796:7 *C 34.019 30.536
*N *2796:8 *C 33.257 34.336
*N *2796:9 *C 33.272 34.323
*N *2796:10 *C 31.904 32.482
*N *2796:11 *C 31.904 32.651
*N *2796:12 *C 31.918 32.664
*N *2796:13 *C 32.512 32.361
*N *2796:14 *C 32.512 32.651
*N *2796:15 *C 32.512 32.664
*N *2796:16 *C 33.259 32.664
*N *2796:17 *C 33.272 32.664
*N *2796:18 *C 33.272 31.144
*N *2796:19 *C 33.576 31.144
*N *2796:20 *C 33.576 30.550
*N *2796:21 *C 33.576 30.536
*N *2796:22 *C 31.158 30.536
*N *2796:23 *C 31.144 30.523
*N *2796:24 *C 31.144 30.232
*N *2796:25 *C 30.993 30.232
*N *2796:26 *C 30.992 30.232

*CAP
0 *238:QN 0.007032822
1 *279:A3 0.001
2 *279:A1 0.001
3 *258:A3 0.04717791
4 *284:A2 0.001
5 *2796:5 0.07473508
6 *2796:6 0.07616776
7 *2796:7 0.01891512
8 *2796:8 0.04510251
9 *2796:9 0.1002914
10 *2796:10 0.01804801
11 *2796:11 0.01187089
12 *2796:12 0.03062103
13 *2796:13 0.0256531
14 *2796:14 0.02708578
15 *2796:15 0.07197814
16 *2796:16 0.03898489
17 *2796:17 0.1893557
18 *2796:18 0.1036993
19 *2796:19 0.058121
20 *2796:20 0.04141066
21 *2796:21 0.1248524
22 *2796:22 0.1035651
23 *2796:23 0.01681282
24 *2796:24 0.0282985
25 *2796:25 0.007038061
26 *2796:26 0.004957424

*RES
0 *238:QN *2796:26 0.02727273
1 *2796:6 *2796:5 1.851786
2 *2796:7 *2796:6 0.5
3 *2796:5 *284:A2 1
4 *2796:20 *2796:19 1.061607
5 *2796:21 *2796:20 0.5
6 *2796:21 *2796:7 0.7901786
7 *2796:8 *258:A3 1.126
8 *2796:9 *2796:8 1
9 *2796:17 *2796:16 0.5
10 *2796:17 *2796:9 2.961607
11 *2796:16 *2796:15 1.333036
12 *2796:14 *2796:13 0.5169643
13 *2796:15 *2796:14 0.5
14 *2796:15 *2796:12 1.061607
15 *2796:13 *279:A3 1
16 *2796:11 *279:A1 1
17 *2796:11 *2796:10 0.2825
18 *2796:12 *2796:11 0.5
19 *2796:23 *2796:22 0.5
20 *2796:22 *2796:21 4.31875
21 *2796:26 *2796:25 1
22 *2796:25 *2796:24 0.2696429
23 *2796:24 *2796:23 0.5187501
24 *2796:18 *2796:17 2.714286
25 *2796:19 *2796:18 0.5428572

*END

*D_NET *2801 0.5833308 //LENGTH 5.815 LUMPCC 0 DR

*CONN
*I *242:QN O *L 0 *C 23.575 41.318
*I *260:A2 I *L 0.5761 *C 25.064 40.568
*I *324:A5 I *L 0.551519 *C 24.304 44.064
*N *2801:3 *C 24.304 44.050
*N *2801:4 *C 24.304 41.480
*N *2801:5 *C 25.064 40.582
*N *2801:6 *C 25.064 41.467
*N *2801:7 *C 25.050 41.480
*N *2801:8 *C 24.166 41.480
*N *2801:9 *C 24.153 41.480
*N *2801:10 *C 24.152 41.340
*N *2801:11 *C 24.137 41.328

*CAP
0 *242:QN 0.04276604
1 *260:A2 0.001
2 *324:A5 0.001
3 *2801:3 0.1342016
4 *2801:4 0.1465486
5 *2801:5 0.0478966
6 *2801:6 0.04932928
7 *2801:7 0.03830215
8 *2801:8 0.03830215
9 *2801:9 0.02576951
10 *2801:10 0.01752422
11 *2801:11 0.04069064

*RES
0 *242:QN *2801:11 1.124
1 *2801:3 *324:A5 1
2 *2801:9 *2801:8 0.5
3 *2801:9 *2801:4 0.2696429
4 *2801:8 *2801:7 1.580357
5 *2801:6 *2801:5 1.580357
6 *2801:7 *2801:6 0.5
7 *2801:5 *260:A2 1
8 *2801:11 *2801:10 1
9 *2801:10 *2801:9 0.2325
10 *2801:4 *2801:3 4.590179

*END

*D_NET *2804 1.25159 //LENGTH 12.822 LUMPCC 0 DR

*CONN
*I *250:QN O *L 0 *C 34.944 21.264
*I *255:A1 I *L 0.529859 *C 39.656 18.984
*I *292:A5 I *L 0.557577 *C 42.240 20.808
*I *288:A3 I *L 0.519105 *C 42.848 19.136
*N *2804:4 *C 42.848 19.123
*N *2804:5 *C 42.848 18.984
*N *2804:6 *C 42.835 18.984
*N *2804:7 *C 42.240 20.794
*N *2804:8 *C 42.240 18.998
*N *2804:9 *C 42.240 18.984
*N *2804:10 *C 39.656 18.802
*N *2804:11 *C 39.656 18.972
*N *2804:12 *C 39.656 18.984
*N *2804:13 *C 34.958 18.984
*N *2804:14 *C 34.944 18.998
*N *2804:15 *C 34.944 21.263

*CAP
0 *250:QN 0.001
1 *255:A1 0.001
2 *292:A5 0.001
3 *288:A3 0.001
4 *2804:4 0.0131963
5 *2804:5 0.01462898
6 *2804:6 0.02572597
7 *2804:7 0.1307941
8 *2804:8 0.1322268
9 *2804:9 0.1264811
10 *2804:10 0.01817161
11 *2804:11 0.0119945
12 *2804:12 0.2990096
13 *2804:13 0.1982545
14 *2804:14 0.1392695
15 *2804:15 0.1378368

*RES
0 *250:QN *2804:15 1
1 *2804:5 *2804:4 0.2325
2 *2804:6 *2804:5 0.5
3 *2804:4 *288:A3 1
4 *2804:8 *2804:7 3.208929
5 *2804:9 *2804:8 0.5
6 *2804:9 *2804:6 1.061607
7 *2804:7 *292:A5 1
8 *2804:11 *255:A1 1
9 *2804:11 *2804:10 0.2825
10 *2804:12 *2804:11 0.5
11 *2804:12 *2804:9 4.614286
12 *2804:14 *2804:13 0.5
13 *2804:13 *2804:12 8.390179
14 *2804:15 *2804:14 4.045536

*END

*D_NET *2808 0.4774313 //LENGTH 4.870 LUMPCC 0 DR

*CONN
*I *239:QN O *L 0 *C 31.006 28.877
*I *284:A3 I *L 0.507548 *C 33.728 29.928
*I *284:A1 I *L 0.514394 *C 34.184 29.168
*N *2808:3 *C 34.184 29.168
*N *2808:4 *C 34.184 29.308
*N *2808:5 *C 34.171 29.320
*N *2808:6 *C 33.728 29.915
*N *2808:7 *C 33.728 29.321
*N *2808:8 *C 33.728 29.320
*N *2808:9 *C 31.158 29.320
*N *2808:10 *C 31.144 29.306
*N *2808:11 *C 31.144 28.878
*N *2808:12 *C 31.132 28.864

*CAP
0 *239:QN 0.0125874
1 *284:A3 0.001
2 *284:A1 0.001
3 *2808:3 0.01658491
4 *2808:4 0.01801759
5 *2808:5 0.01780522
6 *2808:6 0.03900681
7 *2808:7 0.0404395
8 *2808:8 0.1435332
9 *2808:9 0.1233557
10 *2808:10 0.02664607
11 *2808:11 0.02694289
12 *2808:12 0.010512

*RES
0 *239:QN *2808:12 0.21
1 *2808:4 *2808:3 0.2325
2 *2808:5 *2808:4 0.5
3 *2808:3 *284:A1 1
4 *2808:7 *2808:6 1.059821
5 *2808:8 *2808:7 0.5
6 *2808:8 *2808:5 0.7901787
7 *2808:6 *284:A3 1
8 *2808:10 *2808:9 0.5
9 *2808:9 *2808:8 4.590179
10 *2808:12 *2808:11 1
11 *2808:11 *2808:10 0.7660714

*END

*D_NET *2811 0.5538884 //LENGTH 5.047 LUMPCC 0 DR

*CONN
*I *357:Y O *L 0 *C 28.864 11.232
*I *365:D I *L 0.543569 *C 26.280 9.408
*N *2811:2 *C 26.280 9.396
*N *2811:3 *C 26.280 9.256
*N *2811:4 *C 26.294 9.256
*N *2811:5 *C 28.851 9.256
*N *2811:6 *C 28.864 9.270
*N *2811:7 *C 28.864 11.219

*CAP
0 *357:Y 0.001
1 *365:D 0.001
2 *2811:2 0.008358304
3 *2811:3 0.009790983
4 *2811:4 0.1447796
5 *2811:5 0.1447796
6 *2811:6 0.1228063
7 *2811:7 0.1213736

*RES
0 *357:Y *2811:7 1
1 *2811:2 *365:D 1
2 *2811:3 *2811:2 0.2325
3 *2811:4 *2811:3 0.5
4 *2811:6 *2811:5 0.5
5 *2811:5 *2811:4 4.566072
6 *2811:7 *2811:6 3.480357

*END

*D_NET *2815 0.1851493 //LENGTH 1.528 LUMPCC 0 DR

*CONN
*I *353:Y O *L 0 *C 18.498 27.952
*I *369:D I *L 0.543569 *C 17.798 27.344
*N *2815:2 *C 18.209 27.344
*N *2815:3 *C 18.224 27.358
*N *2815:4 *C 18.224 27.939
*N *2815:5 *C 18.239 27.952

*CAP
0 *353:Y 0.0227318
1 *369:D 0.03204438
2 *2815:2 0.02996898
3 *2815:3 0.03987385
4 *2815:4 0.03987385
5 *2815:5 0.0206564

*RES
0 *353:Y *2815:5 0.5180001
1 *2815:2 *369:D 0.822
2 *2815:3 *2815:2 1
3 *2815:5 *2815:4 1
4 *2815:4 *2815:3 1.0375

*END

*D_NET *2819 0.7822778 //LENGTH 8.606 LUMPCC 0 DR

*CONN
*I *349:Y O *L 0 *C 18.194 41.328
*I *361:D I *L 0.543569 *C 14.260 37.376
*N *2819:2 *C 14.133 37.376
*N *2819:3 *C 14.120 37.390
*N *2819:4 *C 14.120 40.555
*N *2819:5 *C 14.134 40.568
*N *2819:6 *C 17.299 40.568
*N *2819:7 *C 17.312 40.582
*N *2819:8 *C 17.312 41.315
*N *2819:9 *C 17.327 41.328

*CAP
0 *349:Y 0.05868629
1 *361:D 0.01634027
2 *2819:2 0.01426487
3 *2819:3 0.1599367
4 *2819:4 0.1596398
5 *2819:5 0.1249683
6 *2819:6 0.1249683
7 *2819:7 0.03328271
8 *2819:8 0.03357953
9 *2819:9 0.05661089

*RES
0 *349:Y *2819:9 1.734
1 *2819:2 *361:D 0.2116667
2 *2819:3 *2819:2 1
3 *2819:4 *2819:3 5.651786
4 *2819:5 *2819:4 0.5
5 *2819:7 *2819:6 0.5
6 *2819:6 *2819:5 5.651786
7 *2819:9 *2819:8 1
8 *2819:8 *2819:7 1.308929

*END

*D_NET *2823 0.2655887 //LENGTH 2.263 LUMPCC 0 DR

*CONN
*I *345:Y O *L 0 *C 31.418 7.888
*I *373:D I *L 0.543569 *C 30.840 9.408
*N *2823:2 *C 30.840 9.395
*N *2823:3 *C 30.840 7.902
*N *2823:4 *C 30.855 7.888

*CAP
0 *345:Y 0.03707526
1 *373:D 0.001
2 *2823:2 0.09539204
3 *2823:3 0.09712154
4 *2823:4 0.03499986

*RES
0 *345:Y *2823:4 1.126
1 *2823:2 *373:D 1
2 *2823:4 *2823:3 1
3 *2823:3 *2823:2 2.666072

*END

*D_NET *2827 0.1433675 //LENGTH 1.855 LUMPCC 0 DR

*CONN
*I *393:Y O *L 0 *C 16.704 11.232
*I *401:D I *L 0.543569 *C 15.792 10.624
*N *2827:2 *C 15.792 10.624
*N *2827:3 *C 15.792 10.764
*N *2827:4 *C 15.806 10.776
*N *2827:5 *C 16.691 10.776
*N *2827:6 *C 16.704 10.790
*N *2827:7 *C 16.704 11.219

*CAP
0 *393:Y 0.001
1 *401:D 0.001
2 *2827:2 0.007143096
3 *2827:3 0.008575775
4 *2827:4 0.04190848
5 *2827:5 0.04190848
6 *2827:6 0.02163218
7 *2827:7 0.0201995

*RES
0 *393:Y *2827:7 1
1 *2827:2 *401:D 1
2 *2827:3 *2827:2 0.2325
3 *2827:4 *2827:3 0.5
4 *2827:6 *2827:5 0.5
5 *2827:5 *2827:4 1.580357
6 *2827:7 *2827:6 0.7660714

*END

*D_NET *2829 0.6305104 //LENGTH 7.626 LUMPCC 0 DR

*CONN
*I *391:Y O *L 0 *C 18.224 15.488
*I *397:D I *L 0.543569 *C 12.448 13.968
*N *2829:2 *C 12.448 13.982
*N *2829:3 *C 12.448 14.411
*N *2829:4 *C 12.462 14.424
*N *2829:5 *C 18.210 14.424
*N *2829:6 *C 18.224 14.438
*N *2829:7 *C 18.224 15.475

*CAP
0 *391:Y 0.001
1 *397:D 0.001
2 *2829:2 0.01935936
3 *2829:3 0.02079204
4 *2829:4 0.2310031
5 *2829:5 0.2310031
6 *2829:6 0.06389273
7 *2829:7 0.06246005

*RES
0 *391:Y *2829:7 1
1 *2829:2 *397:D 1
2 *2829:3 *2829:2 0.7660715
3 *2829:4 *2829:3 0.5
4 *2829:6 *2829:5 0.5
5 *2829:5 *2829:4 10.26607
6 *2829:7 *2829:6 1.851786

*END

*D_NET *2831 0.4946425 //LENGTH 6.258 LUMPCC 0 DR

*CONN
*I *389:Y O *L 0 *C 16.856 17.920
*I *400:D I *L 0.543569 *C 12.752 16.096
*N *2831:2 *C 12.752 16.110
*N *2831:3 *C 12.752 17.451
*N *2831:4 *C 12.766 17.464
*N *2831:5 *C 16.843 17.464
*N *2831:6 *C 16.856 17.477
*N *2831:7 *C 16.856 17.907

*CAP
0 *389:Y 0.001
1 *400:D 0.001
2 *2831:2 0.05548615
3 *2831:3 0.05691883
4 *2831:4 0.1648193
5 *2831:5 0.1648193
6 *2831:6 0.02601577
7 *2831:7 0.0245831

*RES
0 *389:Y *2831:7 1
1 *2831:2 *400:D 1
2 *2831:3 *2831:2 2.394643
3 *2831:4 *2831:3 0.5
4 *2831:6 *2831:5 0.5
5 *2831:5 *2831:4 7.280358
6 *2831:7 *2831:6 0.7660715

*END

*D_NET *2834 0.5953852 //LENGTH 6.415 LUMPCC 0 DR

*CONN
*I *386:Y O *L 0 *C 20.808 12.144
*I *408:D I *L 0.543569 *C 17.464 9.408
*N *2834:2 *C 17.464 9.408
*N *2834:3 *C 17.464 9.548
*N *2834:4 *C 17.477 9.560
*N *2834:5 *C 20.794 9.560
*N *2834:6 *C 20.808 9.574
*N *2834:7 *C 20.808 12.131

*CAP
0 *386:Y 0.001
1 *408:D 0.001
2 *2834:2 0.008375324
3 *2834:3 0.009808002
4 *2834:4 0.1309151
5 *2834:5 0.1309151
6 *2834:6 0.1574022
7 *2834:7 0.1559695

*RES
0 *386:Y *2834:7 1
1 *2834:2 *408:D 1
2 *2834:3 *2834:2 0.2325
3 *2834:4 *2834:3 0.5
4 *2834:6 *2834:5 0.5
5 *2834:5 *2834:4 5.923214
6 *2834:7 *2834:6 4.566072

*END

*D_NET *2835 0.1786592 //LENGTH 1.855 LUMPCC 0 DR

*CONN
*I *385:Y O *L 0 *C 24.152 17.920
*I *399:D I *L 0.543569 *C 25.064 17.312
*N *2835:2 *C 25.064 17.312
*N *2835:3 *C 25.064 17.451
*N *2835:4 *C 25.050 17.464
*N *2835:5 *C 24.166 17.464
*N *2835:6 *C 24.152 17.477
*N *2835:7 *C 24.152 17.907

*CAP
0 *385:Y 0.001
1 *399:D 0.001
2 *2835:2 0.009015812
3 *2835:3 0.01044849
4 *2835:4 0.04076971
5 *2835:5 0.04076971
6 *2835:6 0.03854407
7 *2835:7 0.03711139

*RES
0 *385:Y *2835:7 1
1 *2835:2 *399:D 1
2 *2835:3 *2835:2 0.2325
3 *2835:4 *2835:3 0.5
4 *2835:6 *2835:5 0.5
5 *2835:5 *2835:4 1.580357
6 *2835:7 *2835:6 0.7660715

*END

*D_NET *2838 0.2536878 //LENGTH 2.919 LUMPCC 0 DR

*CONN
*I *382:Y O *L 0 *C 24.152 22.176
*I *407:D I *L 0.543569 *C 25.216 20.656
*N *2838:2 *C 25.216 20.669
*N *2838:3 *C 25.216 22.011
*N *2838:4 *C 25.203 22.024
*N *2838:5 *C 24.166 22.024
*N *2838:6 *C 24.152 22.024
*N *2838:7 *C 24.152 22.164

*CAP
0 *382:Y 0.001
1 *407:D 0.001
2 *2838:2 0.06004376
3 *2838:3 0.06147644
4 *2838:4 0.0471357
5 *2838:5 0.0471357
6 *2838:6 0.01866446
7 *2838:7 0.01723178

*RES
0 *382:Y *2838:7 1
1 *2838:2 *407:D 1
2 *2838:3 *2838:2 2.394643
3 *2838:4 *2838:3 0.5
4 *2838:6 *2838:5 0.5
5 *2838:5 *2838:4 1.851786
6 *2838:7 *2838:6 0.2325

*END

*D_NET *2840 0.7978412 //LENGTH 7.846 LUMPCC 0 DR

*CONN
*I *380:Y O *L 0 *C 24.304 15.488
*I *402:D I *L 0.543569 *C 26.736 10.624
*N *2840:2 *C 26.736 10.638
*N *2840:3 *C 26.736 11.675
*N *2840:4 *C 26.723 11.688
*N *2840:5 *C 25.989 11.688
*N *2840:6 *C 25.976 11.702
*N *2840:7 *C 25.976 14.107
*N *2840:8 *C 25.963 14.120
*N *2840:9 *C 24.318 14.120
*N *2840:10 *C 24.304 14.134
*N *2840:11 *C 24.304 15.475

*CAP
0 *380:Y 0.001
1 *402:D 0.001
2 *2840:2 0.07036957
3 *2840:3 0.07180225
4 *2840:4 0.04013249
5 *2840:5 0.04013249
6 *2840:6 0.134192
7 *2840:7 0.134192
8 *2840:8 0.07092907
9 *2840:9 0.07092907
10 *2840:10 0.08229741
11 *2840:11 0.08086472

*RES
0 *380:Y *2840:11 1
1 *2840:2 *402:D 1
2 *2840:3 *2840:2 1.851786
3 *2840:4 *2840:3 0.5
4 *2840:6 *2840:5 0.5
5 *2840:5 *2840:4 1.308929
6 *2840:7 *2840:6 4.294643
7 *2840:8 *2840:7 0.5
8 *2840:10 *2840:9 0.5
9 *2840:9 *2840:8 2.9375
10 *2840:11 *2840:10 2.394643

*END

*D_NET *2842 0.518193 //LENGTH 6.154 LUMPCC 0 DR

*CONN
*I *378:Y O *L 0 *C 21.416 22.176
*I *406:D I *L 0.543569 *C 18.668 19.440
*N *2842:2 *C 18.541 19.440
*N *2842:3 *C 18.528 19.440
*N *2842:4 *C 18.528 19.579
*N *2842:5 *C 18.541 19.592
*N *2842:6 *C 21.402 19.592
*N *2842:7 *C 21.416 19.605
*N *2842:8 *C 21.416 22.163

*CAP
0 *378:Y 0.001
1 *406:D 0.01341284
2 *2842:2 0.01133744
3 *2842:3 0.01964295
4 *2842:4 0.01934613
5 *2842:5 0.1132184
6 *2842:6 0.1132184
7 *2842:7 0.1142248
8 *2842:8 0.1127921

*RES
0 *378:Y *2842:8 1
1 *2842:2 *406:D 0.2116667
2 *2842:3 *2842:2 1
3 *2842:4 *2842:3 0.2325
4 *2842:5 *2842:4 0.5
5 *2842:7 *2842:6 0.5
6 *2842:6 *2842:5 5.108929
7 *2842:8 *2842:7 4.566072

*END

*D_NET *2845 0.4361265 //LENGTH 4.875 LUMPCC 0 DR

*CONN
*I *496:Y O *L 0 *C 45.280 40.568
*I *411:D I *L 0.543562 *C 41.024 40.720
*N *2845:2 *C 45.280 40.386
*N *2845:3 *C 41.024 40.708
*N *2845:4 *C 41.024 40.568
*N *2845:5 *C 41.038 40.568
*N *2845:6 *C 45.267 40.568
*N *2845:7 *C 45.280 40.556

*CAP
0 *496:Y 0.001
1 *411:D 0.001
2 *2845:2 0.01607408
3 *2845:3 0.01311228
4 *2845:4 0.01454496
5 *2845:5 0.1902491
6 *2845:6 0.1902491
7 *2845:7 0.009896965

*RES
0 *496:Y *2845:7 1
1 *2845:3 *411:D 1
2 *2845:4 *2845:3 0.2325
3 *2845:5 *2845:4 0.5
4 *2845:7 *2845:6 0.5
5 *2845:7 *2845:2 0.2825
6 *2845:6 *2845:5 7.551786

*END

*D_NET *2849 0.09285756 //LENGTH 0.591 LUMPCC 0 DR

*CONN
*I *489:Y O *L 0 *C 41.645 39.504
*I *416:D I *L 0.543562 *C 41.054 39.504

*CAP
0 *489:Y 0.04642878
1 *416:D 0.04642878

*RES
0 *489:Y *416:D 1.182

*END

*D_NET *2850 0.6088946 //LENGTH 6.719 LUMPCC 0 DR

*CONN
*I *165:Y O *L 0 *C 42.696 36.008
*I *417:D I *L 0.543562 *C 36.768 36.160
*N *2850:2 *C 36.768 36.160
*N *2850:3 *C 36.768 36.300
*N *2850:4 *C 36.782 36.312
*N *2850:5 *C 42.683 36.312
*N *2850:6 *C 42.696 36.299
*N *2850:7 *C 42.696 36.022

*CAP
0 *165:Y 0.001
1 *417:D 0.001
2 *2850:2 0.007991449
3 *2850:3 0.009424128
4 *2850:4 0.2795961
5 *2850:5 0.2795961
6 *2850:6 0.01585966
7 *2850:7 0.01442698

*RES
0 *165:Y *2850:7 1
1 *2850:2 *417:D 1
2 *2850:3 *2850:2 0.2325
3 *2850:4 *2850:3 0.5
4 *2850:6 *2850:5 0.5
5 *2850:5 *2850:4 10.5375
6 *2850:7 *2850:6 0.4946429

*END

*D_NET *2854 0.9296106 //LENGTH 8.498 LUMPCC 0 DR

*CONN
*I *427:Y O *L 0 *C 41.176 30.992
*I *428:A2 I *L 0.466516 *C 40.416 25.976
*I *443:A I *L 0.582888 *C 41.784 32.664
*N *2854:3 *C 41.784 32.651
*N *2854:4 *C 41.784 31.766
*N *2854:5 *C 41.771 31.752
*N *2854:6 *C 41.190 31.752
*N *2854:7 *C 41.176 31.739
*N *2854:8 *C 40.416 25.989
*N *2854:9 *C 40.416 30.080
*N *2854:10 *C 41.176 30.080
*N *2854:11 *C 41.176 30.992

*CAP
0 *427:Y 0.001
1 *428:A2 0.001
2 *443:A 0.001
3 *2854:3 0.05849553
4 *2854:4 0.05992821
5 *2854:5 0.02844617
6 *2854:6 0.02844617
7 *2854:7 0.03967842
8 *2854:8 0.2495629
9 *2854:9 0.2890251
10 *2854:10 0.08521986
11 *2854:11 0.08780827

*RES
0 *427:Y *2854:11 1
1 *2854:7 *2854:6 0.5
2 *2854:6 *2854:5 1.0375
3 *2854:4 *2854:3 1.580357
4 *2854:5 *2854:4 0.5
5 *2854:3 *443:A 1
6 *2854:11 *2854:10 1.628571
7 *2854:11 *2854:7 1.333036
8 *2854:8 *428:A2 1
9 *2854:9 *2854:8 7.304464
10 *2854:10 *2854:9 1.357143

*END

*D_NET *2859 1.699746 //LENGTH 16.353 LUMPCC 0 DR

*CONN
*I *432:Y O *L 0 *C 41.176 41.936
*I *467:A1 I *L 0.610599 *C 41.024 32.664
*I *433:A3 I *L 0.456834 *C 42.848 32.664
*I *470:A2 I *L 0.55521 *C 45.584 34.336
*N *2859:4 *C 45.584 34.335
*N *2859:5 *C 45.584 33.894
*N *2859:6 *C 45.571 33.880
*N *2859:7 *C 42.861 33.880
*N *2859:8 *C 42.848 33.867
*N *2859:9 *C 42.848 32.678
*N *2859:10 *C 42.835 32.664
*N *2859:11 *C 41.190 32.664
*N *2859:12 *C 41.175 32.664
*N *2859:13 *C 41.024 32.664
*N *2859:14 *C 41.024 34.640
*N *2859:15 *C 41.176 34.640
*N *2859:16 *C 41.176 41.922

*CAP
0 *432:Y 0.001
1 *467:A1 0.001
2 *433:A3 0.001
3 *470:A2 0.001
4 *2859:4 0.02119779
5 *2859:5 0.02263047
6 *2859:6 0.1243917
7 *2859:7 0.1243917
8 *2859:8 0.07216319
9 *2859:9 0.06835829
10 *2859:10 0.08427648
11 *2859:11 0.08427648
12 *2859:12 0.006352291
13 *2859:13 0.1461506
14 *2859:14 0.1503276
15 *2859:15 0.4016502
16 *2859:16 0.3895788

*RES
0 *432:Y *2859:16 1
1 *2859:8 *2859:7 0.5
2 *2859:7 *2859:6 4.8375
3 *2859:5 *2859:4 0.7883929
4 *2859:6 *2859:5 0.5
5 *2859:4 *470:A2 1
6 *2859:9 *433:A3 1
7 *2859:9 *2859:8 2.123214
8 *2859:16 *2859:15 13.00447
9 *2859:10 *2859:9 0.5
10 *2859:12 *2859:11 0.5
11 *2859:11 *2859:10 2.9375
12 *2859:13 *467:A1 1
13 *2859:13 *2859:12 0.2696429
14 *2859:14 *2859:13 3.528571
15 *2859:15 *2859:14 0.2714286

*END

*D_NET *2864 1.505271 //LENGTH 13.459 LUMPCC 0 DR

*CONN
*I *426:Y O *L 0 *C 41.176 29.168
*I *428:A1 I *L 0.549073 *C 40.264 25.672
*I *429:A I *L 0.582888 *C 43.000 30.840
*I *468:A3 I *L 0.532459 *C 44.216 30.232
*I *476:A2 I *L 0.570549 *C 45.736 28.560
*N *2864:5 *C 45.723 28.560
*N *2864:6 *C 45.584 28.560
*N *2864:7 *C 45.584 28.699
*N *2864:8 *C 45.571 28.712
*N *2864:9 *C 44.216 30.219
*N *2864:10 *C 44.216 28.726
*N *2864:11 *C 44.216 28.712
*N *2864:12 *C 43.000 30.827
*N *2864:13 *C 43.000 28.726
*N *2864:14 *C 43.000 28.712
*N *2864:15 *C 40.264 25.673
*N *2864:16 *C 40.264 28.699
*N *2864:17 *C 40.278 28.712
*N *2864:18 *C 41.176 28.712
*N *2864:19 *C 41.176 28.726
*N *2864:20 *C 41.176 29.155

*CAP
0 *426:Y 0.001
1 *428:A1 0.001
2 *429:A 0.001
3 *468:A3 0.001
4 *476:A2 0.001
5 *2864:5 0.005343481
6 *2864:6 0.02006397
7 *2864:7 0.008543377
8 *2864:8 0.05761499
9 *2864:9 0.1177905
10 *2864:10 0.1192232
11 *2864:11 0.1083489
12 *2864:12 0.1389519
13 *2864:13 0.1403846
14 *2864:14 0.1284716
15 *2864:15 0.2126754
16 *2864:16 0.2141081
17 *2864:17 0.04552663
18 *2864:18 0.1256365
19 *2864:19 0.02951018
20 *2864:20 0.02807751

*RES
0 *426:Y *2864:20 1
1 *2864:7 *2864:6 0.2473214
2 *2864:8 *2864:7 0.5
3 *2864:5 *476:A2 1
4 *2864:10 *2864:9 2.666071
5 *2864:11 *2864:10 0.5
6 *2864:11 *2864:8 2.41875
7 *2864:9 *468:A3 1
8 *2864:13 *2864:12 3.751786
9 *2864:14 *2864:13 0.5
10 *2864:14 *2864:11 2.171429
11 *2864:12 *429:A 1
12 *2864:19 *2864:18 0.5
13 *2864:18 *2864:17 1.604464
14 *2864:18 *2864:14 3.257143
15 *2864:20 *2864:19 0.7660714
16 *2864:16 *2864:15 5.402678
17 *2864:17 *2864:16 0.5
18 *2864:15 *428:A1 1
19 *2864:6 *2864:5 0.2473214

*END

*D_NET *2869 0.3685553 //LENGTH 4.302 LUMPCC 0 DR

*CONN
*I *469:Y O *L 0 *C 47.064 36.186
*I *480:A1 I *L 0.610599 *C 46.952 34.184
*I *470:A3 I *L 0.519105 *C 45.280 34.336
*N *2869:3 *C 45.280 34.324
*N *2869:4 *C 45.280 34.184
*N *2869:5 *C 45.294 34.184
*N *2869:6 *C 46.939 34.184
*N *2869:7 *C 46.952 34.198
*N *2869:8 *C 46.952 36.147
*N *2869:9 *C 46.965 36.160

*CAP
0 *469:Y 0.01118445
1 *480:A1 0.001
2 *470:A3 0.001
3 *2869:3 0.01001152
4 *2869:4 0.0114442
5 *2869:5 0.07516243
6 *2869:6 0.07516243
7 *2869:7 0.08518974
8 *2869:8 0.08929145
9 *2869:9 0.009109055

*RES
0 *469:Y *2869:9 0.1658334
1 *2869:9 *2869:8 1
2 *2869:8 *2869:7 3.480357
3 *2869:7 *480:A1 1
4 *2869:7 *2869:6 0.5
5 *2869:6 *2869:5 2.9375
6 *2869:4 *2869:3 0.2325
7 *2869:5 *2869:4 0.5
8 *2869:3 *470:A3 1

*END

*D_NET *2873 1.23962 //LENGTH 12.766 LUMPCC 0 DR

*CONN
*I *443:Y O *L 0 *C 41.480 32.816
*I *445:A1 I *L 0.601783 *C 43.745 34.361
*I *480:A2 I *L 0.55521 *C 47.104 34.336
*I *485:A3 I *L 0.518192 *C 46.040 33.272
*I *485:A1 I *L 0.520769 *C 46.496 32.512
*N *2873:5 *C 46.496 32.526
*N *2873:6 *C 46.496 33.259
*N *2873:7 *C 46.483 33.272
*N *2873:8 *C 46.040 33.090
*N *2873:9 *C 46.040 33.260
*N *2873:10 *C 46.040 33.272
*N *2873:11 *C 47.104 34.336
*N *2873:12 *C 47.104 34.476
*N *2873:13 *C 47.091 34.488
*N *2873:14 *C 43.471 34.336
*N *2873:15 *C 43.456 34.336
*N *2873:16 *C 43.456 34.476
*N *2873:17 *C 43.470 34.488
*N *2873:18 *C 44.824 34.488
*N *2873:19 *C 44.824 34.474
*N *2873:20 *C 44.824 33.285
*N *2873:21 *C 44.824 33.272
*N *2873:22 *C 41.494 33.272
*N *2873:23 *C 41.480 33.259
*N *2873:24 *C 41.480 32.830

*CAP
0 *443:Y 0.001
1 *445:A1 0.02377756
2 *480:A2 0.001
3 *485:A3 0.001
4 *485:A1 0.001
5 *2873:5 0.04981602
6 *2873:6 0.0512487
7 *2873:7 0.01844428
8 *2873:8 0.01980786
9 *2873:9 0.01363075
10 *2873:10 0.07091586
11 *2873:11 0.01297182
12 *2873:12 0.01440449
13 *2873:13 0.09015441
14 *2873:14 0.02170216
15 *2873:15 0.01337978
16 *2873:16 0.01308296
17 *2873:17 0.05298103
18 *2873:18 0.1455077
19 *2873:19 0.08208053
20 *2873:20 0.08208053
21 *2873:21 0.2271118
22 *2873:22 0.1746402
23 *2873:23 0.02965702
24 *2873:24 0.02822434

*RES
0 *443:Y *2873:24 1
1 *2873:6 *2873:5 1.308929
2 *2873:7 *2873:6 0.5
3 *2873:5 *485:A1 1
4 *2873:9 *485:A3 1
5 *2873:9 *2873:8 0.2825
6 *2873:10 *2873:9 0.5
7 *2873:10 *2873:7 0.7901787
8 *2873:12 *2873:11 0.2325
9 *2873:13 *2873:12 0.5
10 *2873:11 *480:A2 1
11 *2873:19 *2873:18 0.5
12 *2873:18 *2873:17 2.41875
13 *2873:18 *2873:13 4.047322
14 *2873:20 *2873:19 2.123214
15 *2873:21 *2873:20 0.5
16 *2873:21 *2873:10 2.171429
17 *2873:16 *2873:15 0.2325
18 *2873:17 *2873:16 0.5
19 *2873:14 *445:A1 0.5480001
20 *2873:15 *2873:14 1
21 *2873:23 *2873:22 0.5
22 *2873:22 *2873:21 5.947322
23 *2873:24 *2873:23 0.7660714

*END

*D_NET *2880 0.1809073 //LENGTH 1.980 LUMPCC 0 DR

*CONN
*I *492:Y O *L 0 *C 44.126 46.344
*I *493:A4 I *L 0.569168 *C 45.432 46.192
*N *2880:2 *C 44.368 46.162
*N *2880:3 *C 45.432 46.192
*N *2880:4 *C 45.432 46.332
*N *2880:5 *C 45.419 46.344
*N *2880:6 *C 44.382 46.344
*N *2880:7 *C 44.368 46.332
*N *2880:8 *C 44.353 46.344

*CAP
0 *492:Y 0.02181006
1 *493:A4 0.001
2 *2880:2 0.0130038
3 *2880:3 0.0162896
4 *2880:4 0.01772227
5 *2880:5 0.04139537
6 *2880:6 0.04139537
7 *2880:7 0.00855618
8 *2880:8 0.01973466

*RES
0 *492:Y *2880:8 0.4540001
1 *2880:3 *493:A4 1
2 *2880:4 *2880:3 0.2325
3 *2880:5 *2880:4 0.5
4 *2880:7 *2880:6 0.5
5 *2880:7 *2880:2 0.2825
6 *2880:6 *2880:5 1.851786
7 *2880:8 *2880:7 1

*END

*D_NET *2882 0.4712221 //LENGTH 4.544 LUMPCC 0 DR

*CONN
*I *494:Y O *L 0 *C 44.824 42.696
*I *496:A5 I *L 0.551519 *C 44.520 40.720
*I *495:A4 I *L 0.513828 *C 43.760 42.544
*N *2882:3 *C 43.760 42.558
*N *2882:4 *C 43.760 42.986
*N *2882:5 *C 43.774 43.000
*N *2882:6 *C 44.520 40.733
*N *2882:7 *C 44.520 42.986
*N *2882:8 *C 44.520 43.000
*N *2882:9 *C 44.811 43.000
*N *2882:10 *C 44.824 42.986
*N *2882:11 *C 44.824 42.710

*CAP
0 *494:Y 0.001
1 *496:A5 0.001
2 *495:A4 0.001
3 *2882:3 0.03255751
4 *2882:4 0.03399019
5 *2882:5 0.03337106
6 *2882:6 0.1271508
7 *2882:7 0.1285835
8 *2882:8 0.04916986
9 *2882:9 0.01342658
10 *2882:10 0.02570263
11 *2882:11 0.02426995

*RES
0 *494:Y *2882:11 1
1 *2882:10 *2882:9 0.5
2 *2882:9 *2882:8 0.5187501
3 *2882:11 *2882:10 0.4946429
4 *2882:7 *2882:6 4.023214
5 *2882:8 *2882:7 0.5
6 *2882:8 *2882:5 1.333036
7 *2882:6 *496:A5 1
8 *2882:4 *2882:3 0.7660714
9 *2882:5 *2882:4 0.5
10 *2882:3 *495:A4 1

*END

*D_NET *2886 1.549973 //LENGTH 14.377 LUMPCC 0 DR

*CONN
*I *414:QN O *L 0 *C 39.960 32.208
*I *425:A3 I *L 0.456834 *C 40.720 30.840
*I *427:A3 I *L 0.519105 *C 41.784 30.992
*I *474:A2 I *L 0.55521 *C 43.304 27.648
*I *430:A2 I *L 0.61189 *C 44.368 25.976
*I *476:A1 I *L 0.526361 *C 45.554 29.320
*N *2886:6 *C 45.280 29.138
*N *2886:7 *C 45.295 29.320
*N *2886:8 *C 45.280 29.308
*N *2886:9 *C 45.267 29.320
*N *2886:10 *C 44.368 25.989
*N *2886:11 *C 44.368 26.571
*N *2886:12 *C 44.355 26.584
*N *2886:13 *C 43.318 26.584
*N *2886:14 *C 43.304 26.598
*N *2886:15 *C 43.304 27.648
*N *2886:16 *C 43.304 29.306
*N *2886:17 *C 43.304 29.320
*N *2886:18 *C 41.797 29.320
*N *2886:19 *C 41.784 29.334
*N *2886:20 *C 41.784 30.992
*N *2886:21 *C 41.784 31.144
*N *2886:22 *C 41.633 31.144
*N *2886:23 *C 41.619 31.144
*N *2886:24 *C 40.720 30.854
*N *2886:25 *C 40.720 31.131
*N *2886:26 *C 40.720 31.144
*N *2886:27 *C 39.974 31.144
*N *2886:28 *C 39.960 31.158
*N *2886:29 *C 39.960 32.207

*CAP
0 *414:QN 0.001
1 *425:A3 0.001
2 *427:A3 0.001
3 *474:A2 0.001
4 *430:A2 0.001
5 *476:A1 0.02866593
6 *2886:6 0.01439631
7 *2886:7 0.02659054
8 *2886:8 0.009948693
9 *2886:9 0.0853188
10 *2886:10 0.04562803
11 *2886:11 0.04706071
12 *2886:12 0.05346838
13 *2886:13 0.05346838
14 *2886:14 0.0700324
15 *2886:15 0.1885
16 *2886:16 0.1175281
17 *2886:17 0.1556662
18 *2886:18 0.06797519
19 *2886:19 0.1181701
20 *2886:20 0.1278714
21 *2886:21 0.01965334
22 *2886:22 0.006147112
23 *2886:23 0.03667948
24 *2886:24 0.02180242
25 *2886:25 0.0232351
26 *2886:26 0.06970151
27 *2886:27 0.03064981
28 *2886:28 0.06412392
29 *2886:29 0.06269124

*RES
0 *414:QN *2886:29 1
1 *2886:8 *2886:7 1
2 *2886:8 *2886:6 0.2825
3 *2886:9 *2886:8 0.5
4 *2886:7 *476:A1 0.5180001
5 *2886:16 *2886:15 2.961607
6 *2886:17 *2886:16 0.5
7 *2886:17 *2886:9 3.504464
8 *2886:15 *474:A2 1
9 *2886:15 *2886:14 1.875893
10 *2886:14 *2886:13 0.5
11 *2886:13 *2886:12 1.851786
12 *2886:11 *2886:10 1.0375
13 *2886:12 *2886:11 0.5
14 *2886:10 *430:A2 1
15 *2886:20 *427:A3 1
16 *2886:20 *2886:19 2.961607
17 *2886:19 *2886:18 0.5
18 *2886:18 *2886:17 2.690179
19 *2886:22 *2886:21 0.2696429
20 *2886:23 *2886:22 0.5
21 *2886:25 *2886:24 0.4946429
22 *2886:26 *2886:25 0.5
23 *2886:26 *2886:23 1.604464
24 *2886:24 *425:A3 1
25 *2886:28 *2886:27 0.5
26 *2886:27 *2886:26 1.333036
27 *2886:29 *2886:28 1.874107
28 *2886:21 *2886:20 0.2714286

*END

*D_NET *2891 0.7878345 //LENGTH 7.860 LUMPCC 0 DR

*CONN
*I *412:QN O *L 0 *C 40.720 42.240
*I *432:A4 I *L 0.565045 *C 41.814 42.721
*I *495:A5 I *L 0.551519 *C 43.304 42.848
*I *492:A3 I *L 0.539281 *C 43.304 45.736
*N *2891:4 *C 43.304 45.723
*N *2891:5 *C 43.304 42.861
*N *2891:6 *C 43.304 43.014
*N *2891:7 *C 43.291 43.000
*N *2891:8 *C 42.377 42.696
*N *2891:9 *C 42.392 42.710
*N *2891:10 *C 42.392 42.986
*N *2891:11 *C 42.392 43.000
*N *2891:12 *C 42.392 42.696
*N *2891:13 *C 40.733 42.696
*N *2891:14 *C 40.720 42.683
*N *2891:15 *C 40.720 42.254

*CAP
0 *412:QN 0.001
1 *432:A4 0.04192249
2 *495:A5 0.001
3 *492:A3 0.001
4 *2891:4 0.1504242
5 *2891:5 0.01317303
6 *2891:6 0.1688348
7 *2891:7 0.04495386
8 *2891:8 0.0398471
9 *2891:9 0.0194525
10 *2891:10 0.01915568
11 *2891:11 0.0576021
12 *2891:12 0.09743143
13 *2891:13 0.08241098
14 *2891:14 0.0255295
15 *2891:15 0.02409682

*RES
0 *412:QN *2891:15 1
1 *2891:4 *492:A3 1
2 *2891:5 *495:A5 1
3 *2891:6 *2891:5 0.255
4 *2891:6 *2891:4 4.837501
5 *2891:7 *2891:6 0.5
6 *2891:10 *2891:9 0.4946429
7 *2891:11 *2891:10 0.5
8 *2891:11 *2891:7 1.604464
9 *2891:8 *432:A4 1.126
10 *2891:9 *2891:8 1
11 *2891:14 *2891:13 0.5
12 *2891:13 *2891:12 2.961607
13 *2891:15 *2891:14 0.7660715
14 *2891:12 *2891:11 0.5428572

*END

*D_NET *2897 2.013539 //LENGTH 22.651 LUMPCC 0 DR

*CONN
*I *498:Q O *L 0 *C 32.816 39.048
*I *444:A1 I *L 0.666174 *C 41.632 37.680
*I *442:A3 I *L 0.584801 *C 44.064 37.680
*I *456:A1 I *L 0.549073 *C 46.800 39.048
*I *170:A3 I *L 0.539281 *C 45.432 39.048
*I *320:A2 I *L 0.516516 *C 46.192 35.248
*N *2897:6 *C 46.192 35.262
*N *2897:7 *C 46.192 37.819
*N *2897:8 *C 46.178 37.832
*N *2897:9 *C 45.432 39.035
*N *2897:10 *C 46.800 39.047
*N *2897:11 *C 46.800 38.758
*N *2897:12 *C 46.787 38.744
*N *2897:13 *C 45.446 38.744
*N *2897:14 *C 45.432 38.744
*N *2897:15 *C 45.432 37.846
*N *2897:16 *C 45.432 37.832
*N *2897:17 *C 44.064 37.680
*N *2897:18 *C 44.064 37.820
*N *2897:19 *C 44.064 37.832
*N *2897:20 *C 41.480 37.832
*N *2897:21 *C 41.632 37.694
*N *2897:22 *C 41.632 38.123
*N *2897:23 *C 41.619 38.136
*N *2897:24 *C 41.480 38.136
*N *2897:25 *C 33.894 38.136
*N *2897:26 *C 33.880 38.150
*N *2897:27 *C 33.880 39.339
*N *2897:28 *C 33.867 39.352
*N *2897:29 *C 32.830 39.352
*N *2897:30 *C 32.816 39.339
*N *2897:31 *C 32.816 39.062

*CAP
0 *498:Q 0.001
1 *444:A1 0.001
2 *442:A3 0.001
3 *456:A1 0.001
4 *170:A3 0.001
5 *320:A2 0.001
6 *2897:6 0.1578393
7 *2897:7 0.159272
8 *2897:8 0.03745154
9 *2897:9 0.01631874
10 *2897:10 0.0166116
11 *2897:11 0.01804428
12 *2897:12 0.05415548
13 *2897:13 0.05415548
14 *2897:14 0.06449386
15 *2897:15 0.04437022
16 *2897:16 0.1027726
17 *2897:17 0.01222902
18 *2897:18 0.0136617
19 *2897:19 0.1694848
20 *2897:20 0.1182682
21 *2897:21 0.03271014
22 *2897:22 0.03414282
23 *2897:23 0.006631969
24 *2897:24 0.3414038
25 *2897:25 0.3182956
26 *2897:26 0.04738277
27 *2897:27 0.04738277
28 *2897:28 0.04755053
29 *2897:29 0.04754999
30 *2897:30 0.02339639
31 *2897:31 0.02196372

*RES
0 *498:Q *2897:31 1
1 *2897:7 *2897:6 4.566072
2 *2897:8 *2897:7 0.5
3 *2897:6 *320:A2 1
4 *2897:9 *170:A3 1
5 *2897:14 *2897:13 0.5
6 *2897:14 *2897:9 0.5187501
7 *2897:13 *2897:12 2.394643
8 *2897:11 *2897:10 0.5169643
9 *2897:12 *2897:11 0.5
10 *2897:10 *456:A1 1
11 *2897:15 *2897:14 1.604464
12 *2897:16 *2897:15 0.5
13 *2897:16 *2897:8 1.333036
14 *2897:18 *2897:17 0.2325
15 *2897:19 *2897:18 0.5
16 *2897:19 *2897:16 2.442857
17 *2897:17 *442:A3 1
18 *2897:22 *2897:21 0.7660714
19 *2897:23 *2897:22 0.5
20 *2897:21 *444:A1 1
21 *2897:25 *2897:24 13.54732
22 *2897:26 *2897:25 0.5
23 *2897:28 *2897:27 0.5
24 *2897:27 *2897:26 2.123214
25 *2897:30 *2897:29 0.5
26 *2897:29 *2897:28 1.851786
27 *2897:31 *2897:30 0.4946429
28 *2897:24 *2897:23 0.2473214
29 *2897:24 *2897:20 0.5428572
30 *2897:20 *2897:19 4.614285

*END

*D_NET *2901 0.9403638 //LENGTH 9.628 LUMPCC 0 DR

*CONN
*I *413:Q O *L 0 *C 40.720 45.736
*I *432:A2 I *L 0.578798 *C 41.480 42.736
*I *492:A2 I *L 0.515513 *C 42.848 45.280
*I *493:A1 I *L 0.501685 *C 45.736 46.040
*N *2901:4 *C 45.736 46.027
*N *2901:5 *C 45.736 45.446
*N *2901:6 *C 45.723 45.432
*N *2901:7 *C 42.848 45.280
*N *2901:8 *C 42.848 45.419
*N *2901:9 *C 42.848 45.432
*N *2901:10 *C 41.480 42.848
*N *2901:11 *C 41.617 42.848
*N *2901:12 *C 41.632 42.861
*N *2901:13 *C 41.632 45.419
*N *2901:14 *C 41.632 45.432
*N *2901:15 *C 40.733 45.432
*N *2901:16 *C 40.720 45.446
*N *2901:17 *C 40.720 45.723

*CAP
0 *413:Q 0.001
1 *432:A2 0.0126296
2 *492:A2 0.001
3 *493:A1 0.001
4 *2901:4 0.03492945
5 *2901:5 0.03636213
6 *2901:6 0.1137232
7 *2901:7 0.01436834
8 *2901:8 0.01580101
9 *2901:9 0.1690387
10 *2901:10 0.02850431
11 *2901:11 0.01379931
12 *2901:12 0.1680586
13 *2901:13 0.1677618
14 *2901:14 0.09395733
15 *2901:15 0.03864181
16 *2901:16 0.01561041
17 *2901:17 0.01417773

*RES
0 *413:Q *2901:17 1
1 *2901:5 *2901:4 1.0375
2 *2901:6 *2901:5 0.5
3 *2901:4 *493:A1 1
4 *2901:8 *2901:7 0.2325
5 *2901:9 *2901:8 0.5
6 *2901:9 *2901:6 5.133036
7 *2901:7 *492:A2 1
8 *2901:13 *2901:12 4.566072
9 *2901:14 *2901:13 0.5
10 *2901:14 *2901:9 2.171429
11 *2901:11 *2901:10 0.274
12 *2901:12 *2901:11 1
13 *2901:16 *2901:15 0.5
14 *2901:15 *2901:14 1.604464
15 *2901:17 *2901:16 0.4946429
16 *2901:10 *432:A2 0.304

*END

*D_NET *2905 0.8774678 //LENGTH 12.155 LUMPCC 0 DR

*CONN
*I *485:Y O *L 0 *C 45.280 32.208
*I *414:D I *L 0.543562 *C 36.160 32.816
*N *2905:2 *C 45.736 32.786
*N *2905:3 *C 36.160 32.803
*N *2905:4 *C 36.160 32.664
*N *2905:5 *C 36.174 32.664
*N *2905:6 *C 39.643 32.664
*N *2905:7 *C 39.656 32.678
*N *2905:8 *C 39.656 32.955
*N *2905:9 *C 39.669 32.968
*N *2905:10 *C 45.723 32.968
*N *2905:11 *C 45.736 32.956
*N *2905:12 *C 45.723 32.968
*N *2905:13 *C 45.294 32.968
*N *2905:14 *C 45.280 32.955
*N *2905:15 *C 45.280 32.221

*CAP
0 *485:Y 0.001
1 *414:D 0.001
2 *2905:2 0.01116417
3 *2905:3 0.01456899
4 *2905:4 0.01600167
5 *2905:5 0.1482067
6 *2905:6 0.1482072
7 *2905:7 0.01290218
8 *2905:8 0.0129027
9 *2905:9 0.1827457
10 *2905:10 0.1827457
11 *2905:11 0.006421348
12 *2905:12 0.02284454
13 *2905:13 0.022844
14 *2905:14 0.04767282
15 *2905:15 0.04624014

*RES
0 *485:Y *2905:15 1
1 *2905:3 *414:D 1
2 *2905:4 *2905:3 0.2325
3 *2905:5 *2905:4 0.5
4 *2905:6 *2905:5 6.194643
5 *2905:7 *2905:6 0.5
6 *2905:8 *2905:7 0.4946429
7 *2905:9 *2905:8 0.5
8 *2905:11 *2905:10 0.5
9 *2905:11 *2905:2 0.2825
10 *2905:10 *2905:9 10.80893
11 *2905:12 *2905:11 0.5
12 *2905:14 *2905:13 0.5
13 *2905:13 *2905:12 0.7660714
14 *2905:15 *2905:14 1.308929

*END

*D_NET *2909 12.32151 //LENGTH 130.525 LUMPCC 0 DR

*CONN
*I *377:Y O *L 0 *C 7.584 6.064
*I *136:RSTB I *L 0.906543 *C 9.712 10.168
*I *234:RSTB I *L 1.062234 *C 9.864 13.512
*I *138:A I *L 1.418912 *C 10.472 15.944
*I *397:RSTB I *L 1.062234 *C 14.000 13.520
*I *401:RSTB I *L 1.062234 *C 14.272 10.168
*I *225:RSTB I *L 1.062234 *C 14.120 9.864
*I *374:RSTB I *L 1.062234 *C 18.832 6.520
*I *405:RSTB I *L 1.062234 *C 19.744 10.168
*I *409:RSTB I *L 1.062234 *C 19.744 13.512
*I *403:RSTB I *L 1.062234 *C 20.048 16.856
*I *406:RSTB I *L 1.062234 *C 20.200 19.896
*I *408:RSTB I *L 1.062234 *C 18.984 9.864
*I *402:RSTB I *L 1.062234 *C 25.216 10.168
*I *367:RSTB I *L 1.062234 *C 26.736 16.552
*I *399:RSTB I *L 1.062234 *C 26.616 16.864
*I *407:RSTB I *L 1.062234 *C 26.736 20.200
*I *398:RSTB I *L 1.062234 *C 25.672 13.208
*I *373:RSTB I *L 1.062234 *C 32.360 9.864
*I *372:RSTB I *L 1.062234 *C 33.880 10.168
*I *247:RSTB I *L 0.906543 *C 35.400 13.512
*I *246:RSTB I *L 0.906543 *C 36.312 16.856
*I *250:RSTB I *L 0.906543 *C 37.224 20.200
*I *243:RSTB I *L 0.906543 *C 37.224 23.240
*I *248:RSTB I *L 0.906543 *C 36.160 16.552
*I *245:RSTB I *L 0.906543 *C 40.264 13.512
*I *244:RSTB I *L 0.906543 *C 40.720 16.552
*I *365:RSTB I *L 1.062234 *C 27.800 9.864
*I *364:RSTB I *L 1.062234 *C 27.952 6.520
*I *375:RSTB I *L 1.062234 *C 23.392 6.520
*I *232:RSTB I *L 1.062234 *C 14.272 6.520
*I *404:RSTB I *L 1.062234 *C 13.968 19.896
*I *395:RSTB I *L 1.062234 *C 14.728 23.240
*I *396:RSTB I *L 1.062234 *C 14.272 20.200
*I *400:RSTB I *L 1.062234 *C 14.272 16.552
*I *231:RSTB I *L 1.062234 *C 10.016 16.856
*I *228:RSTB I *L 1.062234 *C 10.320 19.896
*I *226:RSTB I *L 1.062234 *C 11.080 23.544
*I *227:RSTB I *L 1.062234 *C 10.016 23.240
*N *2909:39 *C 10.016 23.227
*N *2909:40 *C 11.080 23.530
*N *2909:41 *C 11.080 22.646
*N *2909:42 *C 11.067 22.632
*N *2909:43 *C 10.030 22.632
*N *2909:44 *C 10.016 22.632
*N *2909:45 *C 10.320 19.714
*N *2909:46 *C 10.320 19.884
*N *2909:47 *C 10.306 19.896
*N *2909:48 *C 10.030 19.896
*N *2909:49 *C 10.016 19.896
*N *2909:50 *C 10.016 16.870
*N *2909:51 *C 9.864 16.856
*N *2909:52 *C 14.271 16.552
*N *2909:53 *C 14.272 20.213
*N *2909:54 *C 14.728 23.227
*N *2909:55 *C 14.728 20.504
*N *2909:56 *C 14.272 20.504
*N *2909:57 *C 13.968 20.504
*N *2909:58 *C 13.968 19.896
*N *2909:59 *C 14.120 19.896
*N *2909:60 *C 14.120 16.552
*N *2909:61 *C 23.392 6.338
*N *2909:62 *C 24.532 6.559
*N *2909:63 *C 23.696 6.338
*N *2909:64 *C 27.951 6.520
*N *2909:65 *C 40.720 16.538
*N *2909:66 *C 40.720 14.742
*N *2909:67 *C 40.707 14.728
*N *2909:68 *C 40.278 14.728
*N *2909:69 *C 40.264 14.715
*N *2909:70 *C 40.264 13.526
*N *2909:71 *C 40.251 13.512
*N *2909:72 *C 37.224 23.227
*N *2909:73 *C 37.224 20.213
*N *2909:74 *C 37.211 20.200
*N *2909:75 *C 36.326 20.200
*N *2909:76 *C 36.312 20.187
*N *2909:77 *C 36.312 16.870
*N *2909:78 *C 36.312 16.855
*N *2909:79 *C 36.312 16.552
*N *2909:80 *C 36.174 16.552
*N *2909:81 *C 36.160 16.538
*N *2909:82 *C 36.160 14.742
*N *2909:83 *C 36.147 14.728
*N *2909:84 *C 35.413 14.728
*N *2909:85 *C 35.400 14.715
*N *2909:86 *C 35.400 13.526
*N *2909:87 *C 35.400 13.512
*N *2909:88 *C 34.046 13.512
*N *2909:89 *C 34.032 13.498
*N *2909:90 *C 34.032 10.168
*N *2909:91 *C 33.881 10.168
*N *2909:92 *C 33.867 10.168
*N *2909:93 *C 32.664 10.168
*N *2909:94 *C 32.664 9.864
*N *2909:95 *C 32.360 9.682
*N *2909:96 *C 32.360 9.851
*N *2909:97 *C 32.360 9.864
*N *2909:98 *C 27.814 9.864
*N *2909:99 *C 27.800 9.851
*N *2909:100 *C 27.800 6.520
*N *2909:101 *C 27.787 6.520
*N *2909:102 *C 26.736 20.018
*N *2909:103 *C 26.736 20.188
*N *2909:104 *C 26.723 20.200
*N *2909:105 *C 26.446 20.200
*N *2909:106 *C 26.432 20.187
*N *2909:107 *C 26.432 17.464
*N *2909:108 *C 26.280 17.464
*N *2909:109 *C 26.732 16.856
*N *2909:110 *C 26.736 16.843
*N *2909:111 *C 26.736 16.566
*N *2909:112 *C 26.723 16.552
*N *2909:113 *C 26.294 16.552
*N *2909:114 *C 26.280 16.566
*N *2909:115 *C 26.128 16.552
*N *2909:116 *C 26.128 13.222
*N *2909:117 *C 26.114 13.208
*N *2909:118 *C 25.686 13.208
*N *2909:119 *C 25.672 13.195
*N *2909:120 *C 25.217 10.168
*N *2909:121 *C 25.672 10.168
*N *2909:122 *C 25.672 6.534
*N *2909:123 *C 25.672 6.520
*N *2909:124 *C 23.710 6.520
*N *2909:125 *C 23.696 6.508
*N *2909:126 *C 23.696 6.520
*N *2909:127 *C 23.696 6.542
*N *2909:128 *C 23.369 6.559
*N *2909:129 *C 23.392 6.520
*N *2909:130 *C 23.392 6.508
*N *2909:131 *C 23.379 6.520
*N *2909:132 *C 18.983 9.864
*N *2909:133 *C 20.200 19.883
*N *2909:134 *C 20.200 17.768
*N *2909:135 *C 20.048 17.768
*N *2909:136 *C 20.048 16.870
*N *2909:137 *C 19.896 16.856
*N *2909:138 *C 19.896 13.512
*N *2909:139 *C 19.744 13.512
*N *2909:140 *C 19.744 10.181
*N *2909:141 *C 19.730 10.168
*N *2909:142 *C 18.832 10.168
*N *2909:143 *C 18.832 9.865
*N *2909:144 *C 18.832 9.864
*N *2909:145 *C 18.832 6.534
*N *2909:146 *C 18.832 6.520
*N *2909:147 *C 14.286 6.520
*N *2909:148 *C 14.272 6.534
*N *2909:149 *C 14.121 9.864
*N *2909:150 *C 14.272 9.864
*N *2909:151 *C 14.272 10.155
*N *2909:152 *C 14.120 10.168
*N *2909:153 *C 14.116 13.512
*N *2909:154 *C 14.120 13.512
*N *2909:155 *C 14.120 15.944
*N *2909:156 *C 14.107 15.944
*N *2909:157 *C 10.472 15.762
*N *2909:158 *C 10.472 15.932
*N *2909:159 *C 10.472 15.944
*N *2909:160 *C 9.878 15.944
*N *2909:161 *C 9.864 15.944
*N *2909:162 *C 9.864 13.526
*N *2909:163 *C 9.712 13.512
*N *2909:164 *C 9.712 10.168
*N *2909:165 *C 9.712 6.230
*N *2909:166 *C 9.699 6.216
*N *2909:167 *C 7.598 6.216
*N *2909:168 *C 7.584 6.204
*N *2909:169 *C 7.584 6.064

*CAP
0 *377:Y 0.001
1 *136:RSTB 0.001
2 *234:RSTB 0.001
3 *138:A 0.001
4 *397:RSTB 0.005965081
5 *401:RSTB 0.001
6 *225:RSTB 0.001
7 *374:RSTB 0.001
8 *405:RSTB 0.001
9 *409:RSTB 0.001
10 *403:RSTB 0.001
11 *406:RSTB 0.001
12 *408:RSTB 0.001
13 *402:RSTB 0.001
14 *367:RSTB 0.001
15 *399:RSTB 0.00642813
16 *407:RSTB 0.001
17 *398:RSTB 0.001
18 *373:RSTB 0.001
19 *372:RSTB 0.001
20 *247:RSTB 0.001
21 *246:RSTB 0.001
22 *250:RSTB 0.001
23 *243:RSTB 0.001
24 *248:RSTB 0.001
25 *245:RSTB 0.001
26 *244:RSTB 0.001
27 *365:RSTB 0.001
28 *364:RSTB 0.001
29 *375:RSTB 0.001
30 *232:RSTB 0.001
31 *404:RSTB 0.001
32 *395:RSTB 0.001
33 *396:RSTB 0.001
34 *400:RSTB 0.001
35 *231:RSTB 0.001
36 *228:RSTB 0.001
37 *226:RSTB 0.001
38 *227:RSTB 0.001
39 *2909:39 0.02458602
40 *2909:40 0.04001704
41 *2909:41 0.04144972
42 *2909:42 0.04937758
43 *2909:43 0.04937758
44 *2909:44 0.1377913
45 *2909:45 0.01326845
46 *2909:46 0.007091338
47 *2909:47 0.01458347
48 *2909:48 0.01458347
49 *2909:49 0.2437252
50 *2909:50 0.1390434
51 *2909:51 0.05632497
52 *2909:52 0.004387132
53 *2909:53 0.01622321
54 *2909:54 0.1367613
55 *2909:55 0.1599812
56 *2909:56 0.05281235
57 *2909:57 0.04808892
58 *2909:58 0.03940182
59 *2909:59 0.2069334
60 *2909:60 0.2437933
61 *2909:61 0.01295178
62 *2909:62 0.001
63 *2909:63 0.01465206
64 *2909:64 0.004250678
65 *2909:65 0.08745806
66 *2909:66 0.08889074
67 *2909:67 0.02749955
68 *2909:68 0.02749955
69 *2909:69 0.05745025
70 *2909:70 0.05364535
71 *2909:71 0.2041443
72 *2909:72 0.1286402
73 *2909:73 0.126268
74 *2909:74 0.03396696
75 *2909:75 0.03396696
76 *2909:76 0.1664249
77 *2909:77 0.16262
78 *2909:78 0.009695359
79 *2909:79 0.02205823
80 *2909:80 0.007618433
81 *2909:81 0.1352068
82 *2909:82 0.1390117
83 *2909:83 0.0373041
84 *2909:84 0.0373041
85 *2909:85 0.05701298
86 *2909:86 0.05320808
87 *2909:87 0.260974
88 *2909:88 0.05445746
89 *2909:89 0.1711959
90 *2909:90 0.1826012
91 *2909:91 0.002855998
92 *2909:92 0.05736297
93 *2909:93 0.07265554
94 *2909:94 0.02878654
95 *2909:95 0.01418326
96 *2909:96 0.008006144
97 *2909:97 0.236174
98 *2909:98 0.2203078
99 *2909:99 0.1455219
100 *2909:100 0.1573824
101 *2909:101 0.08499967
102 *2909:102 0.02001891
103 *2909:103 0.01384179
104 *2909:104 0.0173993
105 *2909:105 0.0173993
106 *2909:106 0.1774492
107 *2909:107 0.1887439
108 *2909:108 0.06420603
109 *2909:109 0.004352731
110 *2909:110 0.02674492
111 *2909:111 0.0226432
112 *2909:112 0.02591431
113 *2909:113 0.02591431
114 *2909:114 0.06191961
115 *2909:115 0.188096
116 *2909:116 0.1767155
117 *2909:117 0.02297414
118 *2909:118 0.02297414
119 *2909:119 0.1498754
120 *2909:120 0.01868571
121 *2909:121 0.3720806
122 *2909:122 0.1911653
123 *2909:123 0.1677261
124 *2909:124 0.0803542
125 *2909:125 0.01020444
126 *2909:126 0.001191829
127 *2909:127 0.003267228
128 *2909:128 0.001
129 *2909:129 0.001
130 *2909:130 0.006774664
131 *2909:131 0.1906798
132 *2909:132 0.005266954
133 *2909:133 0.1085948
134 *2909:134 0.1213582
135 *2909:135 0.0710642
136 *2909:136 0.06667151
137 *2909:137 0.1832711
138 *2909:138 0.184113
139 *2909:139 0.1866423
140 *2909:140 0.1750575
141 *2909:141 0.04128993
142 *2909:142 0.05661063
143 *2909:143 0.01057626
144 *2909:144 0.2175146
145 *2909:145 0.2046379
146 *2909:146 0.3785382
147 *2909:147 0.1854862
148 *2909:148 0.1541623
149 *2909:149 0.004720398
150 *2909:150 0.1853288
151 *2909:151 0.02118445
152 *2909:152 0.2201585
153 *2909:153 0.003889683
154 *2909:154 0.3574911
155 *2909:155 0.182716
156 *2909:156 0.1351439
157 *2909:157 0.01263517
158 *2909:158 0.006458059
159 *2909:159 0.1627727
160 *2909:160 0.02525657
161 *2909:161 0.1562683
162 *2909:162 0.1152474
163 *2909:163 0.1595818
164 *2909:164 0.3256818
165 *2909:165 0.1757458
166 *2909:166 0.1086059
167 *2909:167 0.1086059
168 *2909:168 0.008535138
169 *2909:169 0.00710246

*RES
0 *377:Y *2909:169 1
1 *2909:69 *2909:68 0.5
2 *2909:68 *2909:67 0.7660714
3 *2909:66 *2909:65 3.208929
4 *2909:67 *2909:66 0.5
5 *2909:65 *244:RSTB 1
6 *2909:70 *245:RSTB 1
7 *2909:70 *2909:69 2.123214
8 *2909:72 *243:RSTB 1
9 *2909:73 *250:RSTB 1
10 *2909:73 *2909:72 5.380358
11 *2909:74 *2909:73 0.5
12 *2909:76 *2909:75 0.5
13 *2909:75 *2909:74 1.580357
14 *2909:77 *246:RSTB 1
15 *2909:77 *2909:76 5.923215
16 *2909:78 *2909:77 0.5
17 *2909:81 *2909:80 0.5
18 *2909:81 *248:RSTB 1
19 *2909:80 *2909:79 0.2473214
20 *2909:71 *2909:70 0.5
21 *2909:82 *2909:81 3.208929
22 *2909:83 *2909:82 0.5
23 *2909:85 *2909:84 0.5
24 *2909:84 *2909:83 1.308929
25 *2909:86 *247:RSTB 1
26 *2909:86 *2909:85 2.123214
27 *2909:87 *2909:86 0.5
28 *2909:87 *2909:71 8.661608
29 *2909:89 *2909:88 0.5
30 *2909:88 *2909:87 2.41875
31 *2909:91 *372:RSTB 1
32 *2909:91 *2909:90 0.2696429
33 *2909:92 *2909:91 0.5
34 *2909:96 *373:RSTB 1
35 *2909:96 *2909:95 0.2825
36 *2909:97 *2909:96 0.5
37 *2909:97 *2909:94 0.5428572
38 *2909:64 *364:RSTB 1
39 *2909:99 *2909:98 0.5
40 *2909:99 *365:RSTB 1
41 *2909:98 *2909:97 8.118751
42 *2909:109 *399:RSTB 0.02727273
43 *2909:110 *2909:109 1
44 *2909:111 *367:RSTB 1
45 *2909:111 *2909:110 0.4946429
46 *2909:106 *2909:105 0.5
47 *2909:105 *2909:104 0.4946429
48 *2909:103 *407:RSTB 1
49 *2909:103 *2909:102 0.2825
50 *2909:104 *2909:103 0.5
51 *2909:112 *2909:111 0.5
52 *2909:114 *2909:113 0.5
53 *2909:114 *2909:108 1.604464
54 *2909:113 *2909:112 0.7660714
55 *2909:100 *2909:99 5.947322
56 *2909:100 *2909:64 0.2696429
57 *2909:101 *2909:100 0.5
58 *2909:116 *2909:115 5.947322
59 *2909:117 *2909:116 0.5
60 *2909:119 *2909:118 0.5
61 *2909:119 *398:RSTB 1
62 *2909:118 *2909:117 0.7660714
63 *2909:122 *2909:121 6.490179
64 *2909:123 *2909:122 0.5
65 *2909:123 *2909:101 3.775893
66 *2909:120 *402:RSTB 1
67 *2909:125 *2909:124 0.5
68 *2909:125 *2909:63 0.2825
69 *2909:124 *2909:123 3.504464
70 *2909:126 *2909:125 1
71 *2909:133 *406:RSTB 1
72 *2909:136 *403:RSTB 1
73 *2909:136 *2909:135 1.604464
74 *2909:139 *409:RSTB 1
75 *2909:139 *2909:138 0.2714286
76 *2909:140 *405:RSTB 1
77 *2909:140 *2909:139 5.947322
78 *2909:132 *408:RSTB 1
79 *2909:130 *2909:129 1
80 *2909:130 *2909:61 0.2825
81 *2909:131 *2909:130 0.5
82 *2909:141 *2909:140 0.5
83 *2909:144 *2909:143 0.5
84 *2909:144 *2909:132 0.2696429
85 *2909:143 *2909:142 0.5410715
86 *2909:145 *374:RSTB 1
87 *2909:145 *2909:144 5.947322
88 *2909:146 *2909:145 0.5
89 *2909:146 *2909:131 8.118751
90 *2909:54 *395:RSTB 1
91 *2909:53 *396:RSTB 1
92 *2909:151 *401:RSTB 1
93 *2909:151 *2909:150 0.5187501
94 *2909:148 *2909:147 0.5
95 *2909:148 *232:RSTB 1
96 *2909:147 *2909:146 8.118751
97 *2909:52 *400:RSTB 1
98 *2909:153 *397:RSTB 0.02727273
99 *2909:154 *2909:153 1
100 *2909:154 *2909:152 5.971429
101 *2909:149 *225:RSTB 1
102 *2909:58 *404:RSTB 1
103 *2909:58 *2909:57 1.085714
104 *2909:155 *2909:154 4.342857
105 *2909:155 *2909:60 1.085714
106 *2909:156 *2909:155 0.5
107 *2909:158 *138:A 1
108 *2909:158 *2909:157 0.2825
109 *2909:159 *2909:158 0.5
110 *2909:159 *2909:156 6.490179
111 *2909:39 *227:RSTB 1
112 *2909:44 *2909:43 0.5
113 *2909:44 *2909:39 1.061607
114 *2909:43 *2909:42 1.851786
115 *2909:41 *2909:40 1.580357
116 *2909:42 *2909:41 0.5
117 *2909:40 *226:RSTB 1
118 *2909:49 *2909:48 0.5
119 *2909:49 *2909:44 4.885715
120 *2909:48 *2909:47 0.4946429
121 *2909:46 *228:RSTB 1
122 *2909:46 *2909:45 0.2825
123 *2909:47 *2909:46 0.5
124 *2909:50 *231:RSTB 1
125 *2909:50 *2909:49 5.404465
126 *2909:161 *2909:160 0.5
127 *2909:161 *2909:51 1.628571
128 *2909:160 *2909:159 1.061607
129 *2909:162 *234:RSTB 1
130 *2909:162 *2909:161 4.31875
131 *2909:164 *136:RSTB 1
132 *2909:164 *2909:163 5.971429
133 *2909:165 *2909:164 7.033036
134 *2909:166 *2909:165 0.5
135 *2909:168 *2909:167 0.5
136 *2909:167 *2909:166 3.751786
137 *2909:169 *2909:168 0.2325
138 *2909:163 *2909:162 0.2714286
139 *2909:51 *2909:50 0.2714286
140 *2909:57 *2909:56 0.5428572
141 *2909:59 *2909:58 0.2714286
142 *2909:56 *2909:55 0.8142857
143 *2909:56 *2909:53 0.5187501
144 *2909:55 *2909:54 4.861607
145 *2909:150 *2909:149 0.2696429
146 *2909:150 *2909:148 5.947322
147 *2909:152 *2909:151 0.2714286
148 *2909:60 *2909:59 5.971429
149 *2909:60 *2909:52 0.2696429
150 *2909:138 *2909:137 5.971429
151 *2909:137 *2909:136 0.2714286
152 *2909:135 *2909:134 0.2714286
153 *2909:134 *2909:133 3.775893
154 *2909:121 *2909:120 0.8125
155 *2909:121 *2909:119 5.404465
156 *2909:115 *2909:114 0.2714286
157 *2909:108 *2909:107 0.2714286
158 *2909:107 *2909:106 4.861608
159 *2909:90 *2909:89 5.947322
160 *2909:142 *2909:141 1.604464
161 *2909:94 *2909:93 0.5428572
162 *2909:93 *2909:92 2.147322
163 *2909:79 *2909:78 0.5410715
164 *2909:127 *2909:126 0.02
165 *2909:127 *2909:62 1.672
166 *2909:128 *2909:127 0.6540001
167 *2909:129 *2909:128 0.02519231
168 *2909:129 *375:RSTB 0.001

*END

*D_NET *1 2.561464 //LENGTH 33.159 LUMPCC 0 DR

*CONN
*P *1 I *L 0 *C 16.096 0.258
*I *163:A I *L 1.418912 *C 16.400 7.432
*I *118:A I *L 1.418912 *C 15.488 24.152
*I *162:A I *L 0.561607 *C 17.768 29.320
*N *1:4 *C 17.768 29.138
*N *1:5 *C 17.768 29.308
*N *1:6 *C 17.755 29.320
*N *1:7 *C 16.262 29.320
*N *1:8 *C 16.248 29.306
*N *1:9 *C 15.488 23.970
*N *1:10 *C 15.488 24.140
*N *1:11 *C 15.502 24.152
*N *1:12 *C 16.235 24.152
*N *1:13 *C 16.248 24.152
*N *1:14 *C 16.400 7.419
*N *1:15 *C 16.400 7.142
*N *1:16 *C 16.387 7.128
*N *1:17 *C 16.248 7.128
*N *1:18 *C 16.248 7.128
*N *1:19 *C 16.248 0.454
*N *1:20 *C 16.236 0.440
*N *1:21 *C 16.096 0.440
*N *1:22 *C 16.096 0.427

*CAP
0 *1 0.01111945
1 *163:A 0.001
2 *118:A 0.001
3 *162:A 0.001
4 *1:4 0.01533703
5 *1:5 0.009159918
6 *1:6 0.06370601
7 *1:7 0.06370655
8 *1:8 0.2046411
9 *1:9 0.01344957
10 *1:10 0.00727246
11 *1:11 0.05803777
12 *1:12 0.05803831
13 *1:13 0.8594636
14 *1:14 0.01457491
15 *1:15 0.01600759
16 *1:16 0.009737874
17 *1:17 0.00973842
18 *1:18 0.8879894
19 *1:19 0.2331669
20 *1:20 0.007285186
21 *1:21 0.00728464
22 *1:22 0.008747233

*RES
0 *1 *1:22 0.3008929
1 *1:7 *1:6 2.666071
2 *1:8 *1:7 0.5
3 *1:5 *162:A 1
4 *1:5 *1:4 0.2825
5 *1:6 *1:5 0.5
6 *1:17 *1:16 0.2325
7 *1:18 *1:17 0.5
8 *1:18 *1:13 30.4
9 *1:15 *1:14 0.4946429
10 *1:16 *1:15 0.5
11 *1:14 *163:A 1
12 *1:20 *1:19 0.5
13 *1:19 *1:18 11.91875
14 *1:22 *1:21 0.5
15 *1:21 *1:20 0.2325
16 *1:12 *1:11 1.308929
17 *1:13 *1:12 0.5
18 *1:13 *1:8 9.204465
19 *1:10 *118:A 1
20 *1:10 *1:9 0.2825
21 *1:11 *1:10 0.5

*END

*D_NET *5 2.116932 //LENGTH 20.581 LUMPCC 0 DR

*CONN
*P *5 I *L 0 *C 24.456 0.258
*I *390:A2 I *L 0.501039 *C 23.491 14.424
*I *466:A1 I *L 0.521202 *C 23.835 19.288
*N *5:3 *C 23.709 19.288
*N *5:4 *C 23.696 19.274
*N *5:5 *C 23.544 14.424
*N *5:6 *C 23.545 14.424
*N *5:7 *C 23.696 14.438
*N *5:8 *C 23.710 14.424
*N *5:9 *C 24.443 14.424
*N *5:10 *C 24.456 14.411

*CAP
0 *5 0.6475469
1 *390:A2 0.00823626
2 *466:A1 0.01262986
3 *5:3 0.01055446
4 *5:4 0.3449309
5 *5:5 0.006160862
6 *5:6 0.006868359
7 *5:7 0.3535778
8 *5:8 0.04062583
9 *5:9 0.04062583
10 *5:10 0.6451747

*RES
0 *5 *5:10 25.27232
1 *5:3 *466:A1 0.2116667
2 *5:4 *5:3 1
3 *5:7 *5:6 0.2696429
4 *5:7 *5:4 8.637501
5 *5:8 *5:7 0.5
6 *5:10 *5:9 0.5
7 *5:9 *5:8 1.308929
8 *5:5 *390:A2 0.09166668
9 *5:6 *5:5 1

*END

*D_NET *9 2.175815 //LENGTH 27.561 LUMPCC 0 DR

*CONN
*P *9 I *L 0 *C 0.258 18.376
*I *312:S0 I *L 1.210569 *C 12.904 32.681
*N *9:2 *C 12.904 32.482
*N *9:3 *C 12.904 32.664
*N *9:4 *C 12.904 32.651
*N *9:5 *C 12.891 32.664
*N *9:6 *C 0.606 32.664
*N *9:7 *C 0.592 32.651
*N *9:8 *C 0.592 18.390
*N *9:9 *C 0.579 18.376

*CAP
0 *9 0.01266848
1 *312:S0 0.01214663
2 *9:2 0.01317401
3 *9:3 0.01007123
4 *9:4 0.008726394
5 *9:5 0.4729504
6 *9:6 0.4729504
7 *9:7 0.5814155
8 *9:8 0.5814155
9 *9:9 0.01029626

*RES
0 *9 *9:9 0.5723215
1 *9:3 *312:S0 0.09166668
2 *9:4 *9:3 1
3 *9:4 *9:2 0.2825
4 *9:5 *9:4 0.5
5 *9:7 *9:6 0.5
6 *9:6 *9:5 21.9375
7 *9:8 *9:7 25.46607
8 *9:9 *9:8 0.5

*END

*D_NET *12 0.403735 //LENGTH 6.123 LUMPCC 0 DR

*CONN
*I *133:Y O *L 0 *C 5.152 29.472
*P *12 O *L 0.05 *C 0.258 30.536
*N *12:2 *C 5.139 30.536
*N *12:3 *C 5.152 30.523
*N *12:4 *C 5.152 29.486

*CAP
0 *133:Y 0.001
1 *12 0.1547156
2 *12:2 0.1523433
3 *12:3 0.04855439
4 *12:4 0.04712171

*RES
0 *133:Y *12:4 1
1 *12:4 *12:3 1.851786
2 *12:3 *12:2 0.5
3 *12:2 *12 8.715179

*END

*D_NET *15 2.332237 //LENGTH 32.886 LUMPCC 0 DR

*CONN
*I *117:Y O *L 0 *C 30.232 12.752
*P *15 O *L 0.05 *C 10.472 0.258
*N *15:2 *C 30.050 12.600
*N *15:3 *C 10.472 1.034
*N *15:4 *C 10.486 1.048
*N *15:5 *C 30.219 1.048
*N *15:6 *C 30.232 1.062
*N *15:7 *C 30.232 12.587
*N *15:8 *C 30.220 12.600
*N *15:9 *C 30.232 12.600
*N *15:10 *C 30.232 12.740

*CAP
0 *117:Y 0.001
1 *15 0.03109444
2 *15:2 0.01331284
3 *15:3 0.02872223
4 *15:4 0.6459579
5 *15:5 0.6459584
6 *15:6 0.4621531
7 *15:7 0.4621531
8 *15:8 0.008568945
9 *15:9 0.01737462
10 *15:10 0.01594195

*RES
0 *117:Y *15:10 1
1 *15:10 *15:9 0.2325
2 *15:9 *15:8 0.5
3 *15:8 *15:7 0.5
4 *15:8 *15:2 0.2825
5 *15:7 *15:6 20.58036
6 *15:5 *15:4 35.2375
7 *15:6 *15:5 0.5
8 *15:3 *15 1.386607
9 *15:4 *15:3 0.5

*END

*D_NET *19 0.5315968 //LENGTH 7.145 LUMPCC 0 DR

*CONN
*I *130:Y O *L 0 *C 31.904 6.064
*P *19 O *L 0.05 *C 30.840 0.258
*N *19:2 *C 30.840 4.987
*N *19:3 *C 30.854 5.000
*N *19:4 *C 31.891 5.000
*N *19:5 *C 31.904 5.014
*N *19:6 *C 31.904 6.051

*CAP
0 *130:Y 0.001
1 *19 0.1736495
2 *19:2 0.1712772
3 *19:3 0.04376331
4 *19:4 0.04376331
5 *19:5 0.0497881
6 *19:6 0.04835542

*RES
0 *130:Y *19:6 1
1 *19:6 *19:5 1.851786
2 *19:5 *19:4 0.5
3 *19:4 *19:3 1.851786
4 *19:2 *19 8.44375
5 *19:3 *19:2 0.5

*END

*D_NET *23 0.5149005 //LENGTH 6.190 LUMPCC 0 DR

*CONN
*I *114:Y O *L 0 *C 39.230 6.054
*P *23 O *L 0.05 *C 39.504 0.258
*N *23:2 *C 39.504 6.051
*N *23:3 *C 39.489 6.064

*CAP
0 *114:Y 0.02199438
1 *23 0.2375313
2 *23:2 0.2354559
3 *23:3 0.01991898

*RES
0 *114:Y *23:3 0.5180001
1 *23:3 *23:2 1
2 *23:2 *23 10.34375

*END

*D_NET *25 0.8398544 //LENGTH 11.401 LUMPCC 0 DR

*CONN
*I *113:Y O *L 0 *C 43.912 6.216
*P *25 O *L 0.05 *C 49.080 0.258
*N *25:2 *C 49.080 5.595
*N *25:3 *C 49.067 5.608
*N *25:4 *C 43.925 5.608
*N *25:5 *C 43.912 5.622
*N *25:6 *C 43.912 6.203

*CAP
0 *113:Y 0.001
1 *25 0.1872567
2 *25:2 0.1848845
3 *25:3 0.1956717
4 *25:4 0.1956717
5 *25:5 0.03840119
6 *25:6 0.03696851

*RES
0 *113:Y *25:6 1
1 *25:6 *25:5 1.0375
2 *25:5 *25:4 0.5
3 *25:4 *25:3 9.180358
4 *25:2 *25 9.529465
5 *25:3 *25:2 0.5

*END

*D_NET *28 0.3341189 //LENGTH 5.515 LUMPCC 0 DR

*CONN
*I *125:Y O *L 0 *C 47.560 7.280
*P *28 O *L 0.05 *C 52.454 7.736
*N *28:2 *C 47.574 7.736
*N *28:3 *C 47.560 7.723
*N *28:4 *C 47.560 7.294

*CAP
0 *125:Y 0.001
1 *28 0.1485135
2 *28:2 0.1461413
3 *28:3 0.01994843
4 *28:4 0.01851575

*RES
0 *125:Y *28:4 1
1 *28:4 *28:3 0.7660714
2 *28:3 *28:2 0.5
3 *28:2 *28 8.715178

*END

*D_NET *31 4.206548 //LENGTH 72.359 LUMPCC 0 DR

*CONN
*I *111:Y O *L 0 *C 13.816 42.848
*P *31 O *L 0.05 *C 52.454 9.864
*N *31:2 *C 13.634 41.784
*N *31:3 *C 51.221 9.864
*N *31:4 *C 51.208 9.878
*N *31:5 *C 51.208 40.251
*N *31:6 *C 51.195 40.264
*N *31:7 *C 13.830 40.264
*N *31:8 *C 13.816 40.278
*N *31:9 *C 13.816 41.771
*N *31:10 *C 13.804 41.784
*N *31:11 *C 13.816 41.797
*N *31:12 *C 13.816 42.835

*CAP
0 *111:Y 0.001
1 *31 0.0399262
2 *31:2 0.01488029
3 *31:3 0.03755453
4 *31:4 0.8249578
5 *31:5 0.8249584
6 *31:6 1.122291
7 *31:7 1.122291
8 *31:8 0.05466878
9 *31:9 0.05466825
10 *31:10 0.0101364
11 *31:11 0.05032387
12 *31:12 0.04889119

*RES
0 *111:Y *31:12 1
1 *31:12 *31:11 1.851786
2 *31:11 *31:10 0.5
3 *31:10 *31:9 0.5
4 *31:10 *31:2 0.2825
5 *31:9 *31:8 2.666071
6 *31:8 *31:7 0.5
7 *31:7 *31:6 66.7232
8 *31:5 *31:4 54.23749
9 *31:6 *31:5 0.5
10 *31:3 *31 2.200893
11 *31:4 *31:3 0.5

*END

*D_NET *37 0.5505512 //LENGTH 7.753 LUMPCC 0 DR

*CONN
*I *120:Y O *L 0 *C 44.520 6.064
*P *37 O *L 0.05 *C 46.192 0.258
*N *37:2 *C 46.192 4.987
*N *37:3 *C 46.178 5.000
*N *37:4 *C 44.534 5.000
*N *37:5 *C 44.520 5.014
*N *37:6 *C 44.520 6.051

*CAP
0 *120:Y 0.001
1 *37 0.169298
2 *37:2 0.1669257
3 *37:3 0.05895555
4 *37:4 0.05895555
5 *37:5 0.04842453
6 *37:6 0.04699185

*RES
0 *120:Y *37:6 1
1 *37:6 *37:5 1.851786
2 *37:5 *37:4 0.5
3 *37:4 *37:3 2.9375
4 *37:2 *37 8.44375
5 *37:3 *37:2 0.5

*END

*D_NET *40 2.95675 //LENGTH 35.749 LUMPCC 0 DR

*CONN
*I *52:Y O *L 0 *C 24.456 26.280
*P *40 O *L 0.05 *C 32.968 0.258
*N *40:2 *C 32.968 0.440
*N *40:3 *C 32.816 0.440
*N *40:4 *C 32.816 4.378
*N *40:5 *C 32.803 4.392
*N *40:6 *C 24.166 4.392
*N *40:7 *C 24.152 4.405
*N *40:8 *C 24.152 25.659
*N *40:9 *C 24.166 25.672
*N *40:10 *C 24.443 25.672
*N *40:11 *C 24.456 25.686
*N *40:12 *C 24.456 26.267

*CAP
0 *52:Y 0.001
1 *40 0.01273761
2 *40:2 0.01955947
3 *40:3 0.2180035
4 *40:4 0.2088094
5 *40:5 0.3080111
6 *40:6 0.3080117
7 *40:7 0.8790929
8 *40:8 0.8790929
9 *40:9 0.01582898
10 *40:10 0.01582843
11 *40:11 0.04610351
12 *40:12 0.04467084

*RES
0 *52:Y *40:12 1
1 *40:12 *40:11 1.0375
2 *40:11 *40:10 0.5
3 *40:10 *40:9 0.4946429
4 *40:9 *40:8 0.5
5 *40:8 *40:7 37.95178
6 *40:6 *40:5 15.42322
7 *40:7 *40:6 0.5
8 *40:4 *40:3 7.033036
9 *40:5 *40:4 0.5
10 *40:3 *40:2 0.2714286
11 *40:2 *40 0.325

*END

*D_NET *2555 6.638845 //LENGTH 58.593 LUMPCC 0 DR

*CONN
*I *424:Y O *L 0 *C 39.200 29.472
*I *502:A I *L 0.561607 *C 24.760 22.632
*I *354:A1 I *L 0.501685 *C 24.152 27.496
*I *355:A1 I *L 0.501685 *C 20.200 32.664
*I *351:A1 I *L 0.501685 *C 20.200 34.184
*I *353:A1 I *L 0.501685 *C 19.440 27.496
*I *350:A1 I *L 0.501685 *C 19.866 36.008
*I *349:A1 I *L 0.501685 *C 19.136 40.872
*I *348:A1 I *L 0.501685 *C 14.272 42.696
*I *352:A1 I *L 0.501685 *C 20.619 30.840
*I *423:A I *L 0.582888 *C 33.880 25.976
*N *2555:11 *C 33.879 25.976
*N *2555:12 *C 33.728 25.976
*N *2555:13 *C 14.272 42.683
*N *2555:14 *C 14.272 39.974
*N *2555:15 *C 14.286 39.960
*N *2555:16 *C 19.136 40.858
*N *2555:17 *C 19.136 39.974
*N *2555:18 *C 19.136 39.960
*N *2555:19 *C 19.427 39.960
*N *2555:20 *C 19.440 39.947
*N *2555:21 *C 19.455 36.008
*N *2555:22 *C 19.440 36.008
*N *2555:23 *C 19.440 27.510
*N *2555:24 *C 19.440 34.184
*N *2555:25 *C 19.454 34.184
*N *2555:26 *C 20.187 34.184
*N *2555:27 *C 20.200 34.171
*N *2555:28 *C 20.200 32.664
*N *2555:29 *C 20.200 31.448
*N *2555:30 *C 20.352 31.448
*N *2555:31 *C 20.352 30.854
*N *2555:32 *C 20.367 30.840
*N *2555:33 *C 20.618 30.840
*N *2555:34 *C 20.656 30.827
*N *2555:35 *C 20.656 30.384
*N *2555:36 *C 20.808 30.384
*N *2555:37 *C 20.808 30.245
*N *2555:38 *C 20.822 30.232
*N *2555:39 *C 24.139 30.232
*N *2555:40 *C 24.152 30.219
*N *2555:41 *C 24.152 27.510
*N *2555:42 *C 24.166 27.496
*N *2555:43 *C 24.747 27.496
*N *2555:44 *C 24.760 27.483
*N *2555:45 *C 24.760 22.646
*N *2555:46 *C 24.760 26.280
*N *2555:47 *C 24.774 26.280
*N *2555:48 *C 33.715 26.280
*N *2555:49 *C 33.728 26.280
*N *2555:50 *C 33.728 27.495
*N *2555:51 *C 33.729 27.496
*N *2555:52 *C 39.187 27.496
*N *2555:53 *C 39.200 27.510
*N *2555:54 *C 39.200 29.459

*CAP
0 *424:Y 0.001
1 *502:A 0.001
2 *354:A1 0.001
3 *355:A1 0.001
4 *351:A1 0.001
5 *353:A1 0.001
6 *350:A1 0.03373243
7 *349:A1 0.001
8 *348:A1 0.001
9 *352:A1 0.001
10 *423:A 0.001
11 *2555:11 0.005573201
12 *2555:12 0.02766641
13 *2555:13 0.1482667
14 *2555:14 0.1496993
15 *2555:15 0.2022183
16 *2555:16 0.07766405
17 *2555:17 0.07909673
18 *2555:18 0.2175463
19 *2555:19 0.01295581
20 *2555:20 0.3176109
21 *2555:21 0.03165703
22 *2555:22 0.4547353
23 *2555:23 0.4438305
24 *2555:24 0.5820907
25 *2555:25 0.0413229
26 *2555:26 0.0413229
27 *2555:27 0.07994351
28 *2555:28 0.154054
29 *2555:29 0.08077277
30 *2555:30 0.05619325
31 *2555:31 0.04508339
32 *2555:32 0.01992955
33 *2555:33 0.01820005
34 *2555:34 0.02819893
35 *2555:35 0.04185032
36 *2555:36 0.02818085
37 *2555:37 0.01596213
38 *2555:38 0.1943724
39 *2555:39 0.1943724
40 *2555:40 0.2368988
41 *2555:41 0.2330939
42 *2555:42 0.02965832
43 *2555:43 0.02965832
44 *2555:44 0.07938049
45 *2555:45 0.1746876
46 *2555:46 0.257873
47 *2555:47 0.4197477
48 *2555:48 0.4197477
49 *2555:49 0.08634422
50 *2555:50 0.06805591
51 *2555:51 0.2656122
52 *2555:52 0.2656122
53 *2555:53 0.1199022
54 *2555:54 0.1184695

*RES
0 *424:Y *2555:54 1
1 *2555:11 *423:A 1
2 *2555:50 *2555:49 2.169643
3 *2555:51 *2555:50 0.5
4 *2555:53 *2555:52 0.5
5 *2555:52 *2555:51 9.745537
6 *2555:54 *2555:53 3.480358
7 *2555:49 *2555:48 0.5
8 *2555:49 *2555:12 0.5428572
9 *2555:48 *2555:47 15.96607
10 *2555:46 *2555:45 6.490179
11 *2555:46 *2555:44 2.147322
12 *2555:47 *2555:46 0.5
13 *2555:45 *502:A 1
14 *2555:41 *354:A1 1
15 *2555:41 *2555:40 4.8375
16 *2555:44 *2555:43 0.5
17 *2555:43 *2555:42 1.0375
18 *2555:42 *2555:41 0.5
19 *2555:40 *2555:39 0.5
20 *2555:39 *2555:38 5.923215
21 *2555:37 *2555:36 0.2473214
22 *2555:38 *2555:37 0.5
23 *2555:34 *2555:33 1
24 *2555:32 *2555:31 1
25 *2555:31 *2555:30 1.061607
26 *2555:27 *351:A1 1
27 *2555:27 *2555:26 0.5
28 *2555:28 *355:A1 1
29 *2555:28 *2555:27 2.690179
30 *2555:21 *350:A1 0.8220001
31 *2555:22 *2555:21 1
32 *2555:22 *2555:20 7.033036
33 *2555:26 *2555:25 1.308929
34 *2555:24 *2555:23 11.91875
35 *2555:24 *2555:22 3.257143
36 *2555:25 *2555:24 0.5
37 *2555:23 *353:A1 1
38 *2555:20 *2555:19 0.5
39 *2555:19 *2555:18 0.5187501
40 *2555:17 *2555:16 1.580357
41 *2555:18 *2555:17 0.5
42 *2555:18 *2555:15 8.661608
43 *2555:16 *349:A1 1
44 *2555:14 *2555:13 4.837501
45 *2555:15 *2555:14 0.5
46 *2555:13 *348:A1 1
47 *2555:29 *2555:28 2.171428
48 *2555:30 *2555:29 0.2714286
49 *2555:35 *2555:34 0.7901785
50 *2555:36 *2555:35 0.2714286
51 *2555:12 *2555:11 0.2696429
52 *2555:33 *2555:32 0.5024
53 *2555:33 *352:A1 0.001

*END

*D_NET *2558 1.459544 //LENGTH 14.281 LUMPCC 0 DR

*CONN
*I *428:Y O *L 0 *C 40.112 25.824
*I *171:A I *L 0.561607 *C 39.504 25.976
*I *119:A I *L 0.582888 *C 38.288 25.976
*I *168:A I *L 0.561607 *C 34.488 25.976
*I *45:A1 I *L 0.581208 *C 31.601 27.496
*I *167:A I *L 0.561607 *C 32.816 27.496
*N *2558:6 *C 32.816 27.483
*N *2558:7 *C 31.662 27.496
*N *2558:8 *C 31.662 27.496
*N *2558:9 *C 31.600 27.206
*N *2558:10 *C 31.614 27.192
*N *2558:11 *C 32.803 27.192
*N *2558:12 *C 32.816 27.192
*N *2558:13 *C 32.816 25.382
*N *2558:14 *C 32.830 25.368
*N *2558:15 *C 34.323 25.368
*N *2558:16 *C 34.336 25.382
*N *2558:17 *C 34.336 25.976
*N *2558:18 *C 34.488 25.989
*N *2558:19 *C 34.488 26.267
*N *2558:20 *C 34.502 26.280
*N *2558:21 *C 38.288 25.989
*N *2558:22 *C 38.288 26.267
*N *2558:23 *C 38.288 26.280
*N *2558:24 *C 39.504 25.989
*N *2558:25 *C 39.504 26.267
*N *2558:26 *C 39.504 26.280
*N *2558:27 *C 40.099 26.280
*N *2558:28 *C 40.112 26.267
*N *2558:29 *C 40.112 25.838

*CAP
0 *428:Y 0.001
1 *171:A 0.001
2 *119:A 0.001
3 *168:A 0.001
4 *45:A1 0.02178413
5 *167:A 0.001
6 *2558:6 0.01808173
7 *2558:7 0.01555794
8 *2558:8 0.0277648
9 *2558:9 0.01775038
10 *2558:10 0.07457985
11 *2558:11 0.07457985
12 *2558:12 0.1377771
13 *2558:13 0.1158904
14 *2558:14 0.06753317
15 *2558:15 0.06753317
16 *2558:16 0.0332215
17 *2558:17 0.04497181
18 *2558:18 0.0261189
19 *2558:19 0.01817348
20 *2558:20 0.1897455
21 *2558:21 0.01566607
22 *2558:22 0.01709875
23 *2558:23 0.249884
24 *2558:24 0.01603289
25 *2558:25 0.01746556
26 *2558:26 0.09026834
27 *2558:27 0.03012988
28 *2558:28 0.03418356
29 *2558:29 0.03275088

*RES
0 *428:Y *2558:29 1
1 *2558:28 *2558:27 0.5
2 *2558:27 *2558:26 1.061607
3 *2558:29 *2558:28 0.7660715
4 *2558:25 *2558:24 0.4946429
5 *2558:26 *2558:25 0.5
6 *2558:26 *2558:23 2.171428
7 *2558:24 *171:A 1
8 *2558:22 *2558:21 0.4946429
9 *2558:23 *2558:22 0.5
10 *2558:23 *2558:20 6.761607
11 *2558:21 *119:A 1
12 *2558:19 *2558:18 0.4946429
13 *2558:20 *2558:19 0.5
14 *2558:18 *168:A 1
15 *2558:18 *2558:17 0.2714286
16 *2558:6 *167:A 1
17 *2558:16 *2558:15 0.5
18 *2558:15 *2558:14 2.666071
19 *2558:13 *2558:12 3.233036
20 *2558:14 *2558:13 0.5
21 *2558:12 *2558:11 0.5
22 *2558:12 *2558:6 0.5187501
23 *2558:11 *2558:10 2.123214
24 *2558:9 *2558:8 0.5187501
25 *2558:10 *2558:9 0.5
26 *2558:7 *45:A1 0.1916667
27 *2558:8 *2558:7 0.5
28 *2558:17 *2558:16 1.061607

*END

*D_NET *2565 0.9506173 //LENGTH 8.538 LUMPCC 0 DR

*CONN
*I *75:Y O *L 0 *C 34.032 7.280
*I *77:A1 I *L 0.494827 *C 37.984 9.256
*I *81:A2 I *L 0.503427 *C 37.984 11.536
*N *2565:3 *C 37.984 11.523
*N *2565:4 *C 37.984 9.256
*N *2565:5 *C 37.984 8.357
*N *2565:6 *C 37.971 8.344
*N *2565:7 *C 34.046 8.344
*N *2565:8 *C 34.032 8.331
*N *2565:9 *C 34.032 7.294

*CAP
0 *75:Y 0.001
1 *77:A1 0.001
2 *81:A2 0.001
3 *2565:3 0.1622739
4 *2565:4 0.2180216
5 *2565:5 0.05337549
6 *2565:6 0.2002072
7 *2565:7 0.2002072
8 *2565:8 0.05748231
9 *2565:9 0.05604963

*RES
0 *75:Y *2565:9 1
1 *2565:3 *81:A2 1
2 *2565:4 *77:A1 1
3 *2565:4 *2565:3 4.047322
4 *2565:5 *2565:4 1.604464
5 *2565:6 *2565:5 0.5
6 *2565:8 *2565:7 0.5
7 *2565:7 *2565:6 7.008929
8 *2565:9 *2565:8 1.851786

*END

*D_NET *2570 12.01212 //LENGTH 137.381 LUMPCC 0 DR

*CONN
*I *118:Y O *L 0 *C 17.312 24.000
*I *366:CLK I *L 0.694632 *C 29.168 24.912
*I *370:CLK I *L 0.694632 *C 29.365 25.216
*I *248:CLK I *L 0.695415 *C 34.944 15.184
*I *244:CLK I *L 0.695415 *C 39.504 15.184
*I *245:CLK I *L 0.695415 *C 41.480 14.880
*I *247:CLK I *L 0.695415 *C 34.184 14.880
*I *246:CLK I *L 0.695415 *C 35.096 18.224
*I *372:CLK I *L 0.694632 *C 32.664 11.536
*I *373:CLK I *L 0.694632 *C 31.144 8.496
*I *410:CLK I *L 0.695415 *C 38.440 28.256
*I *415:CLK I *L 0.695415 *C 38.440 28.560
*I *414:CLK I *L 0.695415 *C 36.464 31.904
*I *418:CLK I *L 0.695415 *C 36.768 34.944
*I *417:CLK I *L 0.695415 *C 37.032 35.248
*I *249:CLK I *L 0.695415 *C 38.440 24.912
*I *243:CLK I *L 0.695415 *C 38.440 21.872
*I *250:CLK I *L 0.695415 *C 38.440 21.568
*I *239:CLK I *L 0.695415 *C 27.496 28.560
*I *238:CLK I *L 0.695415 *C 27.496 31.600
*I *340:CLK I *L 0.694632 *C 23.696 38.288
*I *240:CLK I *L 0.695415 *C 24.152 38.592
*I *339:CLK I *L 0.694632 *C 28.256 38.288
*I *241:CLK I *L 0.695415 *C 31.904 38.592
*I *237:CLK I *L 0.695415 *C 32.816 38.288
*I *498:CLK I *L 0.694632 *C 36.464 38.592
*I *412:CLK I *L 0.695415 *C 37.224 41.936
*I *413:CLK I *L 0.695415 *C 37.336 45.280
*I *497:CLK I *L 0.694632 *C 36.312 44.976
*I *411:CLK I *L 0.695415 *C 40.720 41.632
*I *416:CLK I *L 0.695415 *C 40.720 38.592
*N *2570:31 *C 40.720 38.580
*N *2570:32 *C 40.720 38.440
*N *2570:33 *C 40.708 38.440
*N *2570:34 *C 40.720 41.620
*N *2570:35 *C 40.720 41.480
*N *2570:36 *C 40.708 41.480
*N *2570:37 *C 40.568 41.480
*N *2570:38 *C 40.568 41.467
*N *2570:39 *C 40.568 38.454
*N *2570:40 *C 40.581 38.440
*N *2570:41 *C 36.130 44.824
*N *2570:42 *C 36.312 44.964
*N *2570:43 *C 36.312 44.824
*N *2570:44 *C 36.300 44.824
*N *2570:45 *C 36.312 44.811
*N *2570:46 *C 37.042 45.432
*N *2570:47 *C 37.236 45.280
*N *2570:48 *C 37.224 45.280
*N *2570:49 *C 37.224 45.419
*N *2570:50 *C 37.212 45.432
*N *2570:51 *C 37.224 45.419
*N *2570:52 *C 37.042 41.784
*N *2570:53 *C 37.224 41.924
*N *2570:54 *C 37.224 41.784
*N *2570:55 *C 37.212 41.784
*N *2570:56 *C 37.224 41.797
*N *2570:57 *C 37.224 43.304
*N *2570:58 *C 37.211 43.304
*N *2570:59 *C 36.326 43.304
*N *2570:60 *C 36.312 43.304
*N *2570:61 *C 36.312 38.440
*N *2570:62 *C 36.615 38.440
*N *2570:63 *C 36.630 38.440
*N *2570:64 *C 36.464 38.580
*N *2570:65 *C 36.464 38.440
*N *2570:66 *C 36.477 38.440
*N *2570:67 *C 32.816 38.288
*N *2570:68 *C 32.816 38.428
*N *2570:69 *C 32.816 38.440
*N *2570:70 *C 31.904 38.580
*N *2570:71 *C 31.904 38.440
*N *2570:72 *C 31.918 38.440
*N *2570:73 *C 32.360 38.440
*N *2570:74 *C 32.360 38.136
*N *2570:75 *C 28.256 38.276
*N *2570:76 *C 28.256 38.136
*N *2570:77 *C 28.256 38.136
*N *2570:78 *C 24.152 38.580
*N *2570:79 *C 24.152 38.440
*N *2570:80 *C 24.152 38.439
*N *2570:81 *C 23.696 38.276
*N *2570:82 *C 23.696 38.136
*N *2570:83 *C 23.710 38.136
*N *2570:84 *C 24.152 38.136
*N *2570:85 *C 24.760 38.136
*N *2570:86 *C 24.760 38.123
*N *2570:87 *C 27.314 31.448
*N *2570:88 *C 27.496 31.588
*N *2570:89 *C 27.496 31.448
*N *2570:90 *C 27.484 31.448
*N *2570:91 *C 27.496 31.434
*N *2570:92 *C 27.314 28.712
*N *2570:93 *C 27.496 28.560
*N *2570:94 *C 27.496 28.700
*N *2570:95 *C 27.484 28.712
*N *2570:96 *C 27.496 28.726
*N *2570:97 *C 27.496 29.624
*N *2570:98 *C 27.483 29.624
*N *2570:99 *C 24.774 29.624
*N *2570:100 *C 24.760 29.624
*N *2570:101 *C 38.258 21.416
*N *2570:102 *C 38.440 21.556
*N *2570:103 *C 38.440 21.416
*N *2570:104 *C 38.428 21.416
*N *2570:105 *C 38.440 21.430
*N *2570:106 *C 38.258 21.872
*N *2570:107 *C 38.440 22.054
*N *2570:108 *C 38.440 21.885
*N *2570:109 *C 38.428 21.872
*N *2570:110 *C 38.440 21.872
*N *2570:111 *C 38.440 24.747
*N *2570:112 *C 38.440 24.899
*N *2570:113 *C 38.440 24.760
*N *2570:114 *C 38.427 24.760
*N *2570:115 *C 36.933 35.248
*N *2570:116 *C 36.920 35.236
*N *2570:117 *C 36.920 35.096
*N *2570:118 *C 36.920 35.095
*N *2570:119 *C 36.920 34.792
*N *2570:120 *C 36.768 34.931
*N *2570:121 *C 36.768 34.792
*N *2570:122 *C 36.782 34.792
*N *2570:123 *C 36.629 34.792
*N *2570:124 *C 36.616 34.779
*N *2570:125 *C 36.464 31.892
*N *2570:126 *C 36.464 31.752
*N *2570:127 *C 36.464 31.752
*N *2570:128 *C 36.604 31.752
*N *2570:129 *C 36.616 31.752
*N *2570:130 *C 38.440 28.547
*N *2570:131 *C 38.440 28.270
*N *2570:132 *C 38.440 28.117
*N *2570:133 *C 38.427 28.104
*N *2570:134 *C 36.630 28.104
*N *2570:135 *C 36.616 28.104
*N *2570:136 *C 36.616 24.774
*N *2570:137 *C 36.616 24.760
*N *2570:138 *C 30.962 8.648
*N *2570:139 *C 31.144 8.496
*N *2570:140 *C 31.144 8.636
*N *2570:141 *C 31.132 8.648
*N *2570:142 *C 31.144 8.662
*N *2570:143 *C 31.144 11.384
*N *2570:144 *C 32.664 11.524
*N *2570:145 *C 32.664 11.384
*N *2570:146 *C 32.651 11.384
*N *2570:147 *C 31.462 11.384
*N *2570:148 *C 31.448 11.398
*N *2570:149 *C 35.096 18.224
*N *2570:150 *C 35.096 18.364
*N *2570:151 *C 35.083 18.376
*N *2570:152 *C 34.198 18.376
*N *2570:153 *C 34.184 18.363
*N *2570:154 *C 34.002 14.728
*N *2570:155 *C 34.184 14.868
*N *2570:156 *C 34.184 14.728
*N *2570:157 *C 34.172 14.728
*N *2570:158 *C 34.184 14.742
*N *2570:159 *C 41.298 14.728
*N *2570:160 *C 41.480 14.868
*N *2570:161 *C 41.480 14.728
*N *2570:162 *C 41.468 14.728
*N *2570:163 *C 41.480 14.742
*N *2570:164 *C 41.480 15.323
*N *2570:165 *C 41.467 15.336
*N *2570:166 *C 39.504 15.184
*N *2570:167 *C 39.504 15.324
*N *2570:168 *C 39.504 15.336
*N *2570:169 *C 34.944 15.184
*N *2570:170 *C 34.944 15.324
*N *2570:171 *C 34.944 15.336
*N *2570:172 *C 34.198 15.336
*N *2570:173 *C 34.184 15.336
*N *2570:174 *C 34.184 17.464
*N *2570:175 *C 34.171 17.464
*N *2570:176 *C 31.462 17.464
*N *2570:177 *C 31.448 17.464
*N *2570:178 *C 31.448 24.747
*N *2570:179 *C 31.448 24.760
*N *2570:180 *C 29.138 25.064
*N *2570:181 *C 29.320 25.216
*N *2570:182 *C 29.320 25.204
*N *2570:183 *C 29.320 25.064
*N *2570:184 *C 29.308 25.064
*N *2570:185 *C 29.320 25.050
*N *2570:186 *C 29.320 24.760
*N *2570:187 *C 29.169 24.760
*N *2570:188 *C 29.168 24.899
*N *2570:189 *C 29.168 24.760
*N *2570:190 *C 29.168 24.760
*N *2570:191 *C 24.774 24.760
*N *2570:192 *C 24.760 24.760
*N *2570:193 *C 24.760 24.166
*N *2570:194 *C 24.747 24.152
*N *2570:195 *C 17.326 24.152
*N *2570:196 *C 17.312 24.140
*N *2570:197 *C 17.312 24.000

*CAP
0 *118:Y 0.001
1 *366:CLK 0.001
2 *370:CLK 0.01031542
3 *248:CLK 0.001
4 *244:CLK 0.001
5 *245:CLK 0.001
6 *247:CLK 0.001
7 *246:CLK 0.001
8 *372:CLK 0.001
9 *373:CLK 0.001
10 *410:CLK 0.001
11 *415:CLK 0.001
12 *414:CLK 0.001
13 *418:CLK 0.001
14 *417:CLK 0.01717429
15 *249:CLK 0.001
16 *243:CLK 0.001
17 *250:CLK 0.001
18 *239:CLK 0.001
19 *238:CLK 0.001
20 *340:CLK 0.001
21 *240:CLK 0.001
22 *339:CLK 0.001
23 *241:CLK 0.001
24 *237:CLK 0.001
25 *498:CLK 0.001
26 *412:CLK 0.001
27 *413:CLK 0.01561647
28 *497:CLK 0.001
29 *411:CLK 0.001
30 *416:CLK 0.001
31 *2570:31 0.009211361
32 *2570:32 0.01064404
33 *2570:33 0.01065053
34 *2570:34 0.008712249
35 *2570:35 0.01014493
36 *2570:36 0.009990015
37 *2570:37 0.009990561
38 *2570:38 0.124527
39 *2570:39 0.124527
40 *2570:40 0.2072266
41 *2570:41 0.01888588
42 *2570:42 0.008768993
43 *2570:43 0.01020167
44 *2570:44 0.01414199
45 *2570:45 0.05666221
46 *2570:46 0.01229344
47 *2570:47 0.01354107
48 *2570:48 0.01108119
49 *2570:49 0.01078437
50 *2570:50 0.007549545
51 *2570:51 0.08304749
52 *2570:52 0.01532186
53 *2570:53 0.008211168
54 *2570:54 0.009643845
55 *2570:55 0.01057797
56 *2570:56 0.05834587
57 *2570:57 0.143765
58 *2570:58 0.04442764
59 *2570:59 0.04442764
60 *2570:60 0.2511882
61 *2570:61 0.2075586
62 *2570:62 0.0106609
63 *2570:63 0.2064957
64 *2570:64 0.008759611
65 *2570:65 0.01019229
66 *2570:66 0.1846801
67 *2570:67 0.01316245
68 *2570:68 0.01459513
69 *2570:69 0.1926995
70 *2570:70 0.008305847
71 *2570:71 0.009738525
72 *2570:72 0.02098867
73 *2570:73 0.05766337
74 *2570:74 0.169528
75 *2570:75 0.008208698
76 *2570:76 0.009641377
77 *2570:77 0.2957384
78 *2570:78 0.01612114
79 *2570:79 0.01755382
80 *2570:80 0.01130448
81 *2570:81 0.009795615
82 *2570:82 0.01122829
83 *2570:83 0.01935757
84 *2570:84 0.06247965
85 *2570:85 0.1672753
86 *2570:86 0.3456828
87 *2570:87 0.01411576
88 *2570:88 0.008840326
89 *2570:89 0.010273
90 *2570:90 0.009371875
91 *2570:91 0.07776891
92 *2570:92 0.01246885
93 *2570:93 0.008552521
94 *2570:94 0.0099852
95 *2570:95 0.007724962
96 *2570:96 0.04043134
97 *2570:97 0.1205719
98 *2570:98 0.131941
99 *2570:99 0.131941
100 *2570:100 0.539133
101 *2570:101 0.01280204
102 *2570:102 0.01297869
103 *2570:103 0.01441136
104 *2570:104 0.008058151
105 *2570:105 0.01948885
106 *2570:106 0.01695233
107 *2570:107 0.0180821
108 *2570:108 0.01190499
109 *2570:109 0.01220844
110 *2570:110 0.1393333
111 *2570:111 0.1174728
112 *2570:112 0.01274434
113 *2570:113 0.01417702
114 *2570:114 0.08785734
115 *2570:115 0.01509889
116 *2570:116 0.01129914
117 *2570:117 0.01100232
118 *2570:118 0.01038277
119 *2570:119 0.02180123
120 *2570:120 0.009206477
121 *2570:121 0.01063915
122 *2570:122 0.01734581
123 *2570:123 0.008300113
124 *2570:124 0.1125478
125 *2570:125 0.007799001
126 *2570:126 0.009231678
127 *2570:127 0.007795672
128 *2570:128 0.007796218
129 *2570:129 0.2454053
130 *2570:130 0.01478419
131 *2570:131 0.02667011
132 *2570:132 0.009513699
133 *2570:133 0.09240595
134 *2570:134 0.09240649
135 *2570:135 0.280253
136 *2570:136 0.1473955
137 *2570:137 0.3160445
138 *2570:138 0.01289632
139 *2570:139 0.01286516
140 *2570:140 0.01429784
141 *2570:141 0.008152428
142 *2570:142 0.1220048
143 *2570:143 0.139934
144 *2570:144 0.01269768
145 *2570:145 0.01413036
146 *2570:146 0.06120848
147 *2570:147 0.06120902
148 *2570:148 0.2686793
149 *2570:149 0.008882238
150 *2570:150 0.01031492
151 *2570:151 0.04644493
152 *2570:152 0.04644547
153 *2570:153 0.03540936
154 *2570:154 0.01341405
155 *2570:155 0.008779063
156 *2570:156 0.01021174
157 *2570:157 0.008670161
158 *2570:158 0.02165537
159 *2570:159 0.01512608
160 *2570:160 0.009291589
161 *2570:161 0.01072427
162 *2570:162 0.01038219
163 *2570:163 0.02908638
164 *2570:164 0.02908638
165 *2570:165 0.09562658
166 *2570:166 0.0134343
167 *2570:167 0.01486698
168 *2570:168 0.3169742
169 *2570:169 0.01296749
170 *2570:170 0.01440017
171 *2570:171 0.2552458
172 *2570:172 0.03389818
173 *2570:173 0.09835395
174 *2570:174 0.1121079
175 *2570:175 0.119216
176 *2570:176 0.119216
177 *2570:177 0.5599027
178 *2570:178 0.3044094
179 *2570:179 0.3161206
180 *2570:180 0.0143721
181 *2570:181 0.008240018
182 *2570:182 0.01320177
183 *2570:183 0.01290495
184 *2570:184 0.009628206
185 *2570:185 0.01381884
186 *2570:186 0.02513092
187 *2570:187 0.006568741
188 *2570:188 0.01487176
189 *2570:189 0.01630443
190 *2570:190 0.2706457
191 *2570:191 0.1803406
192 *2570:192 0.2176221
193 *2570:193 0.02417191
194 *2570:194 0.5532299
195 *2570:195 0.5532293
196 *2570:196 0.01239992
197 *2570:197 0.01096725

*RES
0 *118:Y *2570:197 1
1 *2570:32 *2570:31 0.2325
2 *2570:33 *2570:32 0.5
3 *2570:31 *416:CLK 1
4 *2570:40 *2570:39 0.5
5 *2570:40 *2570:33 0.2116667
6 *2570:39 *2570:38 5.380358
7 *2570:37 *2570:36 0.2325
8 *2570:38 *2570:37 0.5
9 *2570:35 *2570:34 0.2325
10 *2570:36 *2570:35 0.5
11 *2570:34 *411:CLK 1
12 *2570:165 *2570:164 0.5
13 *2570:164 *2570:163 1.0375
14 *2570:162 *2570:161 0.5
15 *2570:162 *2570:159 0.2825
16 *2570:163 *2570:162 0.5
17 *2570:161 *2570:160 0.2325
18 *2570:160 *245:CLK 1
19 *2570:167 *2570:166 0.2325
20 *2570:168 *2570:167 0.5
21 *2570:168 *2570:165 3.504464
22 *2570:166 *244:CLK 1
23 *2570:130 *415:CLK 1
24 *2570:131 *410:CLK 1
25 *2570:131 *2570:130 0.4946429
26 *2570:113 *2570:112 0.2325
27 *2570:114 *2570:113 0.5
28 *2570:114 *2570:111 0.5
29 *2570:112 *249:CLK 1
30 *2570:111 *2570:110 5.133036
31 *2570:109 *2570:108 0.5
32 *2570:109 *2570:106 0.2825
33 *2570:110 *2570:109 0.5
34 *2570:110 *2570:105 0.7901786
35 *2570:108 *243:CLK 1
36 *2570:108 *2570:107 0.2825
37 *2570:104 *2570:103 0.5
38 *2570:104 *2570:101 0.2825
39 *2570:105 *2570:104 0.5
40 *2570:103 *2570:102 0.2325
41 *2570:102 *250:CLK 1
42 *2570:50 *2570:49 0.5
43 *2570:50 *2570:46 0.2825
44 *2570:51 *2570:50 0.5
45 *2570:49 *2570:48 0.2325
46 *2570:47 *413:CLK 0.1658334
47 *2570:48 *2570:47 1
48 *2570:55 *2570:54 0.5
49 *2570:55 *2570:52 0.2825
50 *2570:56 *2570:55 0.5
51 *2570:54 *2570:53 0.2325
52 *2570:53 *412:CLK 1
53 *2570:117 *2570:116 0.2325
54 *2570:118 *2570:117 0.5
55 *2570:115 *417:CLK 0.1658334
56 *2570:116 *2570:115 1
57 *2570:121 *2570:120 0.2325
58 *2570:122 *2570:121 0.5
59 *2570:122 *2570:119 0.2473214
60 *2570:120 *418:CLK 1
61 *2570:123 *2570:122 0.255
62 *2570:124 *2570:123 0.5
63 *2570:132 *2570:131 0.255
64 *2570:133 *2570:132 0.5
65 *2570:134 *2570:133 3.208929
66 *2570:135 *2570:134 0.5
67 *2570:135 *2570:129 6.514286
68 *2570:137 *2570:136 0.5
69 *2570:137 *2570:114 3.233036
70 *2570:136 *2570:135 5.947322
71 *2570:65 *2570:64 0.2325
72 *2570:66 *2570:65 0.5
73 *2570:66 *2570:63 0.255
74 *2570:64 *498:CLK 1
75 *2570:128 *2570:127 0.2325
76 *2570:129 *2570:128 0.5
77 *2570:129 *2570:124 5.404465
78 *2570:126 *2570:125 0.2325
79 *2570:127 *2570:126 0.5
80 *2570:125 *414:CLK 1
81 *2570:63 *2570:62 0.5
82 *2570:63 *2570:40 7.055357
83 *2570:62 *2570:61 0.5410715
84 *2570:58 *2570:57 0.5
85 *2570:57 *2570:56 2.690179
86 *2570:57 *2570:51 3.775893
87 *2570:59 *2570:58 1.580357
88 *2570:60 *2570:59 0.5
89 *2570:60 *2570:45 2.690179
90 *2570:44 *2570:43 0.5
91 *2570:44 *2570:41 0.2825
92 *2570:45 *2570:44 0.5
93 *2570:43 *2570:42 0.2325
94 *2570:42 *497:CLK 1
95 *2570:170 *2570:169 0.2325
96 *2570:171 *2570:170 0.5
97 *2570:171 *2570:168 8.142858
98 *2570:169 *248:CLK 1
99 *2570:152 *2570:151 1.580357
100 *2570:153 *2570:152 0.5
101 *2570:150 *2570:149 0.2325
102 *2570:151 *2570:150 0.5
103 *2570:149 *246:CLK 1
104 *2570:172 *2570:171 1.333036
105 *2570:173 *2570:172 0.5
106 *2570:173 *2570:158 1.061607
107 *2570:157 *2570:156 0.5
108 *2570:157 *2570:154 0.2825
109 *2570:158 *2570:157 0.5
110 *2570:156 *2570:155 0.2325
111 *2570:155 *247:CLK 1
112 *2570:68 *2570:67 0.2325
113 *2570:69 *2570:68 0.5
114 *2570:69 *2570:66 6.536608
115 *2570:67 *237:CLK 1
116 *2570:71 *2570:70 0.2325
117 *2570:72 *2570:71 0.5
118 *2570:70 *241:CLK 1
119 *2570:179 *2570:178 0.5
120 *2570:179 *2570:137 9.228572
121 *2570:178 *2570:177 13.00447
122 *2570:175 *2570:174 0.5
123 *2570:174 *2570:173 3.8
124 *2570:174 *2570:153 1.604464
125 *2570:176 *2570:175 4.837501
126 *2570:177 *2570:176 0.5
127 *2570:177 *2570:148 10.83304
128 *2570:147 *2570:146 2.123214
129 *2570:148 *2570:147 0.5
130 *2570:148 *2570:143 0.5428572
131 *2570:145 *2570:144 0.2325
132 *2570:146 *2570:145 0.5
133 *2570:144 *372:CLK 1
134 *2570:141 *2570:140 0.5
135 *2570:141 *2570:138 0.2825
136 *2570:142 *2570:141 0.5
137 *2570:140 *2570:139 0.2325
138 *2570:139 *373:CLK 1
139 *2570:189 *2570:188 0.2325
140 *2570:190 *2570:189 0.5
141 *2570:190 *2570:187 0.5
142 *2570:190 *2570:179 4.071428
143 *2570:188 *366:CLK 1
144 *2570:187 *2570:186 0.2696429
145 *2570:184 *2570:183 0.5
146 *2570:184 *2570:180 0.2825
147 *2570:185 *2570:184 0.5
148 *2570:183 *2570:182 0.2325
149 *2570:181 *370:CLK 0.09166668
150 *2570:182 *2570:181 1
151 *2570:76 *2570:75 0.2325
152 *2570:77 *2570:76 0.5
153 *2570:77 *2570:74 7.328572
154 *2570:75 *339:CLK 1
155 *2570:90 *2570:89 0.5
156 *2570:90 *2570:87 0.2825
157 *2570:91 *2570:90 0.5
158 *2570:89 *2570:88 0.2325
159 *2570:88 *238:CLK 1
160 *2570:95 *2570:94 0.5
161 *2570:95 *2570:92 0.2825
162 *2570:96 *2570:95 0.5
163 *2570:94 *2570:93 0.2325
164 *2570:93 *239:CLK 1
165 *2570:85 *2570:84 1.085714
166 *2570:85 *2570:77 6.242858
167 *2570:86 *2570:85 0.5
168 *2570:98 *2570:97 0.5
169 *2570:97 *2570:96 1.604464
170 *2570:97 *2570:91 3.233036
171 *2570:99 *2570:98 4.837501
172 *2570:100 *2570:99 0.5
173 *2570:100 *2570:86 15.17589
174 *2570:191 *2570:190 7.847322
175 *2570:192 *2570:191 0.5
176 *2570:192 *2570:100 8.685716
177 *2570:79 *2570:78 0.2325
178 *2570:80 *2570:79 0.5
179 *2570:78 *240:CLK 1
180 *2570:82 *2570:81 0.2325
181 *2570:83 *2570:82 0.5
182 *2570:81 *340:CLK 1
183 *2570:194 *2570:193 0.5
184 *2570:193 *2570:192 1.061607
185 *2570:196 *2570:195 0.5
186 *2570:195 *2570:194 13.25179
187 *2570:197 *2570:196 0.2325
188 *2570:84 *2570:83 0.7901787
189 *2570:84 *2570:80 0.5410715
190 *2570:74 *2570:73 0.5428572
191 *2570:73 *2570:72 0.7901787
192 *2570:73 *2570:69 0.8142858
193 *2570:119 *2570:118 0.5410715
194 *2570:186 *2570:185 0.5187501
195 *2570:143 *2570:142 4.861607
196 *2570:61 *2570:60 8.685715

*END

*D_NET *2603 0.3984611 //LENGTH 4.664 LUMPCC 0 DR

*CONN
*I *68:Y O *L 0 *C 39.960 6.064
*I *70:A2 I *L 0.54421 *C 41.525 5.152
*I *113:A2 I *L 0.515513 *C 42.696 5.152
*N *2603:3 *C 42.696 5.139
*N *2603:4 *C 42.696 5.000
*N *2603:5 *C 42.683 5.000
*N *2603:6 *C 41.480 5.152
*N *2603:7 *C 41.480 5.139
*N *2603:8 *C 41.480 5.000
*N *2603:9 *C 41.480 5.000
*N *2603:10 *C 39.974 5.000
*N *2603:11 *C 39.960 5.014
*N *2603:12 *C 39.960 6.051

*CAP
0 *68:Y 0.001
1 *70:A2 0.01020729
2 *113:A2 0.001
3 *2603:3 0.01030562
4 *2603:4 0.0117383
5 *2603:5 0.05075726
6 *2603:6 0.008131894
7 *2603:7 0.01911656
8 *2603:8 0.01881974
9 *2603:9 0.1101903
10 *2603:10 0.05706084
11 *2603:11 0.05078298
12 *2603:12 0.0493503

*RES
0 *68:Y *2603:12 1
1 *2603:4 *2603:3 0.2325
2 *2603:5 *2603:4 0.5
3 *2603:3 *113:A2 1
4 *2603:8 *2603:7 0.2325
5 *2603:9 *2603:8 0.5
6 *2603:9 *2603:5 2.147322
7 *2603:6 *70:A2 0.09166668
8 *2603:7 *2603:6 1
9 *2603:11 *2603:10 0.5
10 *2603:10 *2603:9 2.690179
11 *2603:12 *2603:11 1.851786

*END

*D_NET *2606 5.927095 //LENGTH 65.495 LUMPCC 0 DR

*CONN
*I *46:Y O *L 0 *C 34.184 27.800
*I *57:A3 I *L 0.498109 *C 33.880 23.240
*I *115:A5 I *L 0.583269 *C 31.144 20.808
*I *55:A3 I *L 0.507548 *C 30.688 16.552
*I *501:A I *L 0.561607 *C 30.414 14.120
*I *47:A5 I *L 0.583269 *C 21.872 29.320
*I *51:A3 I *L 0.498109 *C 24.912 29.928
*I *49:A3 I *L 0.507548 *C 19.592 29.928
*I *106:A4 I *L 0.552216 *C 21.568 34.488
*I *63:A3 I *L 0.498109 *C 19.896 46.648
*I *61:A3 I *L 0.507548 *C 18.680 43.304
*I *59:A5 I *L 0.583269 *C 16.400 42.696
*I *109:A5 I *L 0.583269 *C 20.656 42.696
*N *2606:13 *C 34.184 27.618
*N *2606:14 *C 20.656 42.697
*N *2606:15 *C 20.656 43.291
*N *2606:16 *C 20.643 43.304
*N *2606:17 *C 16.400 42.697
*N *2606:18 *C 16.400 43.291
*N *2606:19 *C 16.413 43.304
*N *2606:20 *C 18.680 43.122
*N *2606:21 *C 18.680 43.291
*N *2606:22 *C 18.680 43.304
*N *2606:23 *C 19.896 46.635
*N *2606:24 *C 19.896 43.318
*N *2606:25 *C 19.896 43.304
*N *2606:26 *C 20.517 43.304
*N *2606:27 *C 20.504 43.291
*N *2606:28 *C 21.568 34.356
*N *2606:29 *C 21.568 34.476
*N *2606:30 *C 21.555 34.488
*N *2606:31 *C 20.518 34.488
*N *2606:32 *C 20.504 34.488
*N *2606:33 *C 19.592 29.915
*N *2606:34 *C 19.592 29.334
*N *2606:35 *C 19.605 29.320
*N *2606:36 *C 20.491 29.320
*N *2606:37 *C 20.504 29.334
*N *2606:38 *C 20.518 29.320
*N *2606:39 *C 23.848 29.138
*N *2606:40 *C 24.912 29.915
*N *2606:41 *C 24.912 29.334
*N *2606:42 *C 24.899 29.320
*N *2606:43 *C 21.872 29.188
*N *2606:44 *C 21.872 29.308
*N *2606:45 *C 21.886 29.320
*N *2606:46 *C 23.848 29.320
*N *2606:47 *C 23.848 29.308
*N *2606:48 *C 23.848 29.320
*N *2606:49 *C 33.867 29.320
*N *2606:50 *C 33.880 29.306
*N *2606:51 *C 30.673 14.120
*N *2606:52 *C 30.688 14.134
*N *2606:53 *C 30.688 16.538
*N *2606:54 *C 30.702 16.552
*N *2606:55 *C 31.131 16.552
*N *2606:56 *C 31.144 16.566
*N *2606:57 *C 31.144 20.808
*N *2606:58 *C 31.144 22.315
*N *2606:59 *C 31.158 22.328
*N *2606:60 *C 33.880 23.227
*N *2606:61 *C 33.880 22.341
*N *2606:62 *C 33.867 22.328
*N *2606:63 *C 33.880 22.341
*N *2606:64 *C 33.880 27.800
*N *2606:65 *C 33.894 27.800
*N *2606:66 *C 34.171 27.800
*N *2606:67 *C 34.184 27.788

*CAP
0 *46:Y 0.001
1 *57:A3 0.001
2 *115:A5 0.001
3 *55:A3 0.001
4 *501:A 0.0243189
5 *47:A5 0.001
6 *51:A3 0.001
7 *49:A3 0.001
8 *106:A4 0.001
9 *63:A3 0.001
10 *61:A3 0.001
11 *59:A5 0.001
12 *109:A5 0.001
13 *2606:13 0.01271401
14 *2606:14 0.03709124
15 *2606:15 0.03852392
16 *2606:16 0.01090132
17 *2606:17 0.04323105
18 *2606:18 0.04466373
19 *2606:19 0.1017274
20 *2606:20 0.01502979
21 *2606:21 0.008852676
22 *2606:22 0.1600198
23 *2606:23 0.1957922
24 *2606:24 0.1972248
25 *2606:25 0.0891054
26 *2606:26 0.0440871
27 *2606:27 0.3813981
28 *2606:28 0.0120556
29 *2606:29 0.003901635
30 *2606:30 0.04195203
31 *2606:31 0.04392942
32 *2606:32 0.5784756
33 *2606:33 0.04283468
34 *2606:34 0.04426736
35 *2606:35 0.0473429
36 *2606:36 0.04734344
37 *2606:37 0.1923347
38 *2606:38 0.1024346
39 *2606:39 0.01277453
40 *2606:40 0.03377533
41 *2606:41 0.03520801
42 *2606:42 0.05416508
43 *2606:43 0.01603207
44 *2606:44 0.007878109
45 *2606:45 0.09779534
46 *2606:46 0.15631
47 *2606:47 0.008031711
48 *2606:48 0.4463454
49 *2606:49 0.3415396
50 *2606:50 0.05552966
51 *2606:51 0.02224351
52 *2606:52 0.1689442
53 *2606:53 0.1648425
54 *2606:54 0.02505637
55 *2606:55 0.02505637
56 *2606:56 0.2900008
57 *2606:57 0.3851948
58 *2606:58 0.09425448
59 *2606:59 0.1315839
60 *2606:60 0.05316008
61 *2606:61 0.05459275
62 *2606:62 0.1292122
63 *2606:63 0.2245408
64 *2606:64 0.2824416
65 *2606:65 0.01524819
66 *2606:66 0.01524765
67 *2606:67 0.006536894

*RES
0 *46:Y *2606:67 1
1 *2606:65 *2606:64 0.5
2 *2606:64 *2606:63 9.747323
3 *2606:64 *2606:50 2.690179
4 *2606:67 *2606:66 0.5
5 *2606:67 *2606:13 0.2825
6 *2606:66 *2606:65 0.4946429
7 *2606:62 *2606:61 0.5
8 *2606:62 *2606:59 4.837501
9 *2606:63 *2606:62 0.5
10 *2606:61 *2606:60 1.580357
11 *2606:60 *57:A3 1
12 *2606:58 *2606:57 2.690179
13 *2606:59 *2606:58 0.5
14 *2606:57 *115:A5 1
15 *2606:57 *2606:56 7.575893
16 *2606:56 *2606:55 0.5
17 *2606:55 *2606:54 0.7660714
18 *2606:53 *55:A3 1
19 *2606:53 *2606:52 4.294643
20 *2606:54 *2606:53 0.5
21 *2606:51 *501:A 0.5180001
22 *2606:52 *2606:51 1
23 *2606:41 *2606:40 1.0375
24 *2606:42 *2606:41 0.5
25 *2606:40 *51:A3 1
26 *2606:50 *2606:49 0.5
27 *2606:49 *2606:48 17.89018
28 *2606:47 *2606:46 0.5
29 *2606:47 *2606:39 0.2825
30 *2606:48 *2606:47 0.5
31 *2606:48 *2606:38 5.947322
32 *2606:46 *2606:45 3.504464
33 *2606:46 *2606:42 1.875893
34 *2606:44 *47:A5 1
35 *2606:44 *2606:43 0.1991667
36 *2606:45 *2606:44 0.5
37 *2606:15 *2606:14 1.059822
38 *2606:16 *2606:15 0.5
39 *2606:14 *109:A5 1
40 *2606:26 *2606:25 1.108036
41 *2606:26 *2606:16 0.2116667
42 *2606:27 *2606:26 0.5
43 *2606:31 *2606:30 1.851786
44 *2606:32 *2606:31 0.5
45 *2606:32 *2606:27 15.71875
46 *2606:29 *106:A4 1
47 *2606:29 *2606:28 0.1991667
48 *2606:30 *2606:29 0.5
49 *2606:37 *2606:36 0.5
50 *2606:37 *2606:32 9.204465
51 *2606:38 *2606:37 0.5
52 *2606:24 *2606:23 5.923215
53 *2606:25 *2606:24 0.5
54 *2606:25 *2606:22 2.171429
55 *2606:23 *63:A3 1
56 *2606:36 *2606:35 1.580357
57 *2606:34 *2606:33 1.0375
58 *2606:35 *2606:34 0.5
59 *2606:33 *49:A3 1
60 *2606:21 *61:A3 1
61 *2606:21 *2606:20 0.2825
62 *2606:22 *2606:21 0.5
63 *2606:22 *2606:19 4.047322
64 *2606:18 *2606:17 1.059821
65 *2606:19 *2606:18 0.5
66 *2606:17 *59:A5 1

*END

*D_NET *2612 1.795677 //LENGTH 19.865 LUMPCC 0 DR

*CONN
*I *54:Y O *L 0 *C 29.046 12.750
*I *117:A1 I *L 0.601783 *C 29.624 12.448
*I *116:A3 I *L 0.539281 *C 31.448 22.328
*I *58:A1 I *L 0.502229 *C 31.904 25.976
*I *116:A1 I *L 0.484201 *C 32.056 22.632
*N *2612:5 *C 32.056 22.619
*N *2612:6 *C 32.056 22.038
*N *2612:7 *C 32.043 22.024
*N *2612:8 *C 31.904 25.963
*N *2612:9 *C 31.904 25.368
*N *2612:10 *C 31.448 25.368
*N *2612:11 *C 31.448 22.328
*N *2612:12 *C 31.448 22.038
*N *2612:13 *C 31.448 22.024
*N *2612:14 *C 30.854 22.024
*N *2612:15 *C 30.840 22.011
*N *2612:16 *C 30.840 20.822
*N *2612:17 *C 30.827 20.808
*N *2612:18 *C 29.030 20.808
*N *2612:19 *C 29.016 20.794
*N *2612:20 *C 29.016 13.222
*N *2612:21 *C 29.030 13.208
*N *2612:22 *C 29.611 13.208
*N *2612:23 *C 29.624 13.195
*N *2612:24 *C 29.624 12.462
*N *2612:25 *C 29.624 12.752
*N *2612:26 *C 29.609 12.752

*CAP
0 *54:Y 0.04173648
1 *117:A1 0.001
2 *116:A3 0.001
3 *58:A1 0.001
4 *116:A1 0.001
5 *2612:5 0.03887549
6 *2612:6 0.04030817
7 *2612:7 0.0304444
8 *2612:8 0.02715981
9 *2612:9 0.05205728
10 *2612:10 0.1745612
11 *2612:11 0.1721879
12 *2612:12 0.02015205
13 *2612:13 0.06321549
14 *2612:14 0.03039941
15 *2612:15 0.05676458
16 *2612:16 0.05676458
17 *2612:17 0.1095558
18 *2612:18 0.1095558
19 *2612:19 0.2825221
20 *2612:20 0.2825221
21 *2612:21 0.02977483
22 *2612:22 0.02977429
23 *2612:23 0.03096968
24 *2612:24 0.01882165
25 *2612:25 0.05389305
26 *2612:26 0.03966108

*RES
0 *54:Y *2612:26 1.126
1 *2612:8 *58:A1 1
2 *2612:6 *2612:5 1.0375
3 *2612:7 *2612:6 0.5
4 *2612:5 *116:A1 1
5 *2612:11 *116:A3 1
6 *2612:11 *2612:10 5.428572
7 *2612:12 *2612:11 0.5187501
8 *2612:13 *2612:12 0.5
9 *2612:13 *2612:7 1.061607
10 *2612:24 *117:A1 1
11 *2612:26 *2612:25 1
12 *2612:25 *2612:24 0.5187501
13 *2612:25 *2612:23 0.7901786
14 *2612:14 *2612:13 1.061607
15 *2612:15 *2612:14 0.5
16 *2612:17 *2612:16 0.5
17 *2612:16 *2612:15 2.123214
18 *2612:18 *2612:17 3.208929
19 *2612:19 *2612:18 0.5
20 *2612:21 *2612:20 0.5
21 *2612:20 *2612:19 13.52322
22 *2612:23 *2612:22 0.5
23 *2612:22 *2612:21 1.0375
24 *2612:10 *2612:9 0.8142858
25 *2612:9 *2612:8 1.061607

*END

*D_NET *2615 4.23462 //LENGTH 40.949 LUMPCC 0 DR

*CONN
*I *396:Q O *L 0 *C 16.704 21.112
*I *388:A2 I *L 0.501039 *C 17.464 21.112
*I *387:A4 I *L 0.569168 *C 18.376 24.000
*I *63:A2 I *L 0.498632 *C 20.101 46.192
*I *236:A2 I *L 0.538095 *C 27.740 40.720
*I *350:A2 I *L 0.501039 *C 20.033 35.704
*N *2615:6 *C 27.937 40.720
*N *2615:7 *C 27.952 40.708
*N *2615:8 *C 27.952 40.568
*N *2615:9 *C 27.939 40.568
*N *2615:10 *C 20.048 46.192
*N *2615:11 *C 20.048 46.178
*N *2615:12 *C 20.048 45.446
*N *2615:13 *C 20.062 45.432
*N *2615:14 *C 20.794 45.432
*N *2615:15 *C 20.808 45.419
*N *2615:16 *C 20.808 40.582
*N *2615:17 *C 20.808 40.568
*N *2615:18 *C 20.062 40.568
*N *2615:19 *C 20.048 40.555
*N *2615:20 *C 20.048 35.718
*N *2615:21 *C 20.033 35.704
*N *2615:22 *C 18.695 35.704
*N *2615:23 *C 18.680 35.691
*N *2615:24 *C 18.680 34.184
*N *2615:25 *C 18.528 34.184
*N *2615:26 *C 18.528 24.456
*N *2615:27 *C 18.376 24.014
*N *2615:28 *C 18.376 24.456
*N *2615:29 *C 18.363 24.456
*N *2615:30 *C 16.718 24.456
*N *2615:31 *C 16.704 24.443
*N *2615:32 *C 17.464 21.099
*N *2615:33 *C 17.464 20.822
*N *2615:34 *C 17.451 20.808
*N *2615:35 *C 16.718 20.808
*N *2615:36 *C 16.704 20.822
*N *2615:37 *C 16.704 21.112

*CAP
0 *396:Q 0.001
1 *388:A2 0.001
2 *387:A4 0.001
3 *63:A2 0.00945418
4 *236:A2 0.02191937
5 *350:A2 0.001
6 *2615:6 0.01984397
7 *2615:7 0.01882646
8 *2615:8 0.01852963
9 *2615:9 0.3063206
10 *2615:10 0.007378781
11 *2615:11 0.06676478
12 *2615:12 0.06646796
13 *2615:13 0.03673008
14 *2615:14 0.03673063
15 *2615:15 0.207991
16 *2615:16 0.207991
17 *2615:17 0.3452311
18 *2615:18 0.03653771
19 *2615:19 0.3101825
20 *2615:20 0.3087499
21 *2615:21 0.06959659
22 *2615:22 0.07132608
23 *2615:23 0.08537082
24 *2615:24 0.09541765
25 *2615:25 0.5746184
26 *2615:26 0.5761991
27 *2615:27 0.03322476
28 *2615:28 0.04420954
29 *2615:29 0.07609845
30 *2615:30 0.07609845
31 *2615:31 0.1674439
32 *2615:32 0.01858175
33 *2615:33 0.02001443
34 *2615:34 0.04756506
35 *2615:35 0.04756506
36 *2615:36 0.0166284
37 *2615:37 0.1850118

*RES
0 *396:Q *2615:37 1
1 *2615:8 *2615:7 0.2325
2 *2615:9 *2615:8 0.5
3 *2615:6 *236:A2 0.394
4 *2615:7 *2615:6 1
5 *2615:17 *2615:16 0.5
6 *2615:17 *2615:9 12.73304
7 *2615:16 *2615:15 8.637501
8 *2615:14 *2615:13 1.308929
9 *2615:15 *2615:14 0.5
10 *2615:12 *2615:11 1.308929
11 *2615:13 *2615:12 0.5
12 *2615:10 *63:A2 0.09166668
13 *2615:11 *2615:10 1
14 *2615:19 *2615:18 0.5
15 *2615:18 *2615:17 1.333036
16 *2615:20 *2615:19 8.637501
17 *2615:22 *2615:21 2.6754
18 *2615:23 *2615:22 1
19 *2615:27 *387:A4 1
20 *2615:28 *2615:27 0.7901786
21 *2615:28 *2615:26 0.2714286
22 *2615:29 *2615:28 0.5
23 *2615:31 *2615:30 0.5
24 *2615:30 *2615:29 2.9375
25 *2615:37 *2615:36 0.5187501
26 *2615:37 *2615:31 5.947322
27 *2615:36 *2615:35 0.5
28 *2615:35 *2615:34 1.308929
29 *2615:33 *2615:32 0.4946429
30 *2615:34 *2615:33 0.5
31 *2615:32 *388:A2 1
32 *2615:26 *2615:25 17.37143
33 *2615:25 *2615:24 0.2714286
34 *2615:24 *2615:23 2.690179
35 *2615:21 *2615:20 1
36 *2615:21 *350:A2 0.001

*END

*D_NET *2619 4.18744 //LENGTH 39.916 LUMPCC 0 DR

*CONN
*I *408:Q O *L 0 *C 21.416 8.952
*I *386:A4 I *L 0.569168 *C 20.200 12.752
*I *387:A2 I *L 0.501039 *C 18.558 24.456
*I *51:A2 I *L 0.498632 *C 25.216 29.472
*I *277:A2 I *L 0.52073 *C 29.016 34.032
*I *354:A2 I *L 0.501039 *C 24.304 27.800
*N *2619:6 *C 24.304 27.787
*N *2619:7 *C 29.016 34.019
*N *2619:8 *C 29.016 31.766
*N *2619:9 *C 29.003 31.752
*N *2619:10 *C 25.230 31.752
*N *2619:11 *C 25.216 31.739
*N *2619:12 *C 25.216 29.472
*N *2619:13 *C 25.216 27.206
*N *2619:14 *C 25.203 27.192
*N *2619:15 *C 24.318 27.192
*N *2619:16 *C 24.304 27.206
*N *2619:17 *C 24.152 27.192
*N *2619:18 *C 24.152 25.078
*N *2619:19 *C 24.139 25.064
*N *2619:20 *C 19.758 25.064
*N *2619:21 *C 19.744 25.050
*N *2619:22 *C 19.744 24.456
*N *2619:23 *C 18.984 24.274
*N *2619:24 *C 18.969 24.456
*N *2619:25 *C 18.984 24.444
*N *2619:26 *C 18.998 24.456
*N *2619:27 *C 19.579 24.456
*N *2619:28 *C 19.592 24.456
*N *2619:29 *C 19.592 12.918
*N *2619:30 *C 19.605 12.904
*N *2619:31 *C 20.200 12.752
*N *2619:32 *C 20.200 12.892
*N *2619:33 *C 20.200 12.904
*N *2619:34 *C 21.402 12.904
*N *2619:35 *C 21.416 12.891
*N *2619:36 *C 21.416 8.966

*CAP
0 *408:Q 0.001
1 *386:A4 0.001
2 *387:A2 0.02853954
3 *51:A2 0.001
4 *277:A2 0.001
5 *354:A2 0.001
6 *2619:6 0.05183269
7 *2619:7 0.1225191
8 *2619:8 0.1239518
9 *2619:9 0.1585083
10 *2619:10 0.1585083
11 *2619:11 0.1358667
12 *2619:12 0.2891218
13 *2619:13 0.1523156
14 *2619:14 0.05956203
15 *2619:15 0.05956203
16 *2619:16 0.06192796
17 *2619:17 0.1790895
18 *2619:18 0.1680547
19 *2619:19 0.1994845
20 *2619:20 0.1994845
21 *2619:21 0.04642368
22 *2619:22 0.05798597
23 *2619:23 0.01648878
24 *2619:24 0.02646414
25 *2619:25 0.01204116
26 *2619:26 0.03092084
27 *2619:27 0.03092084
28 *2619:28 0.6069219
29 *2619:29 0.5977318
30 *2619:30 0.03011382
31 *2619:31 0.01009408
32 *2619:32 0.01152676
33 *2619:33 0.09261166
34 *2619:34 0.06012563
35 *2619:35 0.2025862
36 *2619:36 0.2011535

*RES
0 *408:Q *2619:36 1
1 *2619:11 *2619:10 0.5
2 *2619:10 *2619:9 6.7375
3 *2619:8 *2619:7 4.023215
4 *2619:9 *2619:8 0.5
5 *2619:7 *277:A2 1
6 *2619:12 *51:A2 1
7 *2619:12 *2619:11 4.047321
8 *2619:6 *354:A2 1
9 *2619:13 *2619:12 4.047322
10 *2619:14 *2619:13 0.5
11 *2619:16 *2619:15 0.5
12 *2619:16 *2619:6 1.0375
13 *2619:15 *2619:14 1.580357
14 *2619:35 *2619:34 0.5
15 *2619:34 *2619:33 2.147322
16 *2619:36 *2619:35 7.008929
17 *2619:32 *2619:31 0.2325
18 *2619:33 *2619:32 0.5
19 *2619:33 *2619:30 1.061607
20 *2619:31 *386:A4 1
21 *2619:18 *2619:17 3.775893
22 *2619:19 *2619:18 0.5
23 *2619:21 *2619:20 0.5
24 *2619:20 *2619:19 7.823215
25 *2619:29 *2619:28 20.60447
26 *2619:30 *2619:29 0.5
27 *2619:28 *2619:27 0.5
28 *2619:28 *2619:22 0.2714286
29 *2619:27 *2619:26 1.0375
30 *2619:25 *2619:24 1
31 *2619:25 *2619:23 0.2825
32 *2619:26 *2619:25 0.5
33 *2619:24 *387:A2 0.822
34 *2619:22 *2619:21 1.061607
35 *2619:17 *2619:16 0.2714286

*END

*D_NET *2623 2.902244 //LENGTH 32.210 LUMPCC 0 DR

*CONN
*I *400:Q O *L 0 *C 16.704 15.640
*I *389:A4 I *L 0.569168 *C 17.464 17.312
*I *358:A2 I *L 0.501039 *C 29.472 22.328
*I *329:A2 I *L 0.466516 *C 36.464 25.976
*I *57:A2 I *L 0.498632 *C 34.184 22.784
*N *2623:5 *C 34.184 22.771
*N *2623:6 *C 36.464 25.975
*N *2623:7 *C 36.464 22.646
*N *2623:8 *C 36.451 22.632
*N *2623:9 *C 34.198 22.632
*N *2623:10 *C 34.184 22.606
*N *2623:11 *C 34.184 21.733
*N *2623:12 *C 34.171 21.720
*N *2623:13 *C 29.472 22.315
*N *2623:14 *C 29.472 21.733
*N *2623:15 *C 29.472 21.720
*N *2623:16 *C 27.358 21.720
*N *2623:17 *C 27.344 21.707
*N *2623:18 *C 27.344 18.390
*N *2623:19 *C 27.331 18.376
*N *2623:20 *C 19.910 18.376
*N *2623:21 *C 19.896 18.363
*N *2623:22 *C 19.896 17.174
*N *2623:23 *C 19.883 17.160
*N *2623:24 *C 17.464 17.311
*N *2623:25 *C 17.464 17.174
*N *2623:26 *C 17.464 17.160
*N *2623:27 *C 16.718 17.160
*N *2623:28 *C 16.704 17.146
*N *2623:29 *C 16.704 15.654

*CAP
0 *400:Q 0.001
1 *389:A4 0.001
2 *358:A2 0.001
3 *329:A2 0.001
4 *57:A2 0.001
5 *2623:5 0.008621142
6 *2623:6 0.1598793
7 *2623:7 0.161139
8 *2623:8 0.106083
9 *2623:9 0.106083
10 *2623:10 0.08291455
11 *2623:11 0.07048851
12 *2623:12 0.2118684
13 *2623:13 0.03181752
14 *2623:14 0.0332502
15 *2623:15 0.2928779
16 *2623:16 0.07863721
17 *2623:17 0.1579845
18 *2623:18 0.1579845
19 *2623:19 0.3246261
20 *2623:20 0.3246261
21 *2623:21 0.07030568
22 *2623:22 0.07030568
23 *2623:23 0.09736554
24 *2623:24 0.01299404
25 *2623:25 0.01442672
26 *2623:26 0.1331999
27 *2623:27 0.03346216
28 *2623:28 0.07886828
29 *2623:29 0.07743559

*RES
0 *400:Q *2623:29 1
1 *2623:5 *57:A2 1
2 *2623:10 *2623:9 0.5
3 *2623:10 *2623:5 0.2758334
4 *2623:9 *2623:8 4.023214
5 *2623:7 *2623:6 5.945536
6 *2623:8 *2623:7 0.5
7 *2623:6 *329:A2 1
8 *2623:11 *2623:10 1.558036
9 *2623:12 *2623:11 0.5
10 *2623:14 *2623:13 1.0375
11 *2623:15 *2623:14 0.5
12 *2623:15 *2623:12 8.390179
13 *2623:13 *358:A2 1
14 *2623:17 *2623:16 0.5
15 *2623:16 *2623:15 3.775893
16 *2623:18 *2623:17 5.923214
17 *2623:19 *2623:18 0.5
18 *2623:21 *2623:20 0.5
19 *2623:20 *2623:19 13.25179
20 *2623:22 *2623:21 2.123214
21 *2623:23 *2623:22 0.5
22 *2623:25 *2623:24 0.2455357
23 *2623:26 *2623:25 0.5
24 *2623:26 *2623:23 4.31875
25 *2623:24 *389:A4 1
26 *2623:28 *2623:27 0.5
27 *2623:27 *2623:26 1.333036
28 *2623:29 *2623:28 2.666071

*END

*D_NET *2627 3.746891 //LENGTH 46.453 LUMPCC 0 DR

*CONN
*I *404:Q O *L 0 *C 16.400 18.984
*I *389:A2 I *L 0.501039 *C 17.646 17.768
*I *69:A2 I *L 0.498632 *C 41.480 7.280
*I *301:A2 I *L 0.482724 *C 42.696 12.600
*I *346:A2 I *L 0.501039 *C 23.544 8.952
*I *388:A4 I *L 0.569168 *C 17.616 20.656
*N *2627:6 *C 17.616 20.643
*N *2627:7 *C 23.544 8.966
*N *2627:8 *C 23.544 9.242
*N *2627:9 *C 23.544 9.074
*N *2627:10 *C 42.696 12.587
*N *2627:11 *C 42.696 10.486
*N *2627:12 *C 42.683 10.472
*N *2627:13 *C 41.190 10.472
*N *2627:14 *C 41.176 10.459
*N *2627:15 *C 41.480 7.294
*N *2627:16 *C 41.480 8.331
*N *2627:17 *C 41.467 8.344
*N *2627:18 *C 41.190 8.344
*N *2627:19 *C 41.176 8.357
*N *2627:20 *C 41.176 9.256
*N *2627:21 *C 41.163 9.256
*N *2627:22 *C 23.558 9.256
*N *2627:23 *C 23.544 9.244
*N *2627:24 *C 23.530 9.256
*N *2627:25 *C 22.950 9.256
*N *2627:26 *C 22.936 9.270
*N *2627:27 *C 22.936 16.538
*N *2627:28 *C 22.922 16.552
*N *2627:29 *C 18.238 16.552
*N *2627:30 *C 18.224 16.566
*N *2627:31 *C 18.209 17.768
*N *2627:32 *C 18.224 17.755
*N *2627:33 *C 18.210 17.768
*N *2627:34 *C 17.630 17.768
*N *2627:35 *C 17.616 17.782
*N *2627:36 *C 17.616 19.288
*N *2627:37 *C 17.602 19.288
*N *2627:38 *C 16.413 19.288
*N *2627:39 *C 16.400 19.274
*N *2627:40 *C 16.400 18.998

*CAP
0 *404:Q 0.001
1 *389:A2 0.03471973
2 *69:A2 0.001
3 *301:A2 0.001
4 *346:A2 0.001
5 *388:A4 0.001
6 *2627:6 0.09206708
7 *2627:7 0.0223799
8 *2627:8 0.02381258
9 *2627:9 0.01155571
10 *2627:10 0.1021991
11 *2627:11 0.1036318
12 *2627:12 0.0782114
13 *2627:13 0.07821196
14 *2627:14 0.04567156
15 *2627:15 0.06103326
16 *2627:16 0.06246594
17 *2627:17 0.01515445
18 *2627:18 0.015155
19 *2627:19 0.03517667
20 *2627:20 0.08322042
21 *2627:21 0.5850201
22 *2627:22 0.5850201
23 *2627:23 0.006812893
24 *2627:24 0.03254008
25 *2627:25 0.0349123
26 *2627:26 0.280716
27 *2627:27 0.280716
28 *2627:28 0.1796783
29 *2627:29 0.1796778
30 *2627:30 0.07369073
31 *2627:31 0.03264433
32 *2627:32 0.07161533
33 *2627:33 0.0353893
34 *2627:34 0.0353893
35 *2627:35 0.1014742
36 *2627:36 0.1973461
37 *2627:37 0.0636764
38 *2627:38 0.0636764
39 *2627:39 0.01933105
40 *2627:40 0.01789837

*RES
0 *404:Q *2627:40 1
1 *2627:13 *2627:12 2.666071
2 *2627:14 *2627:13 0.5
3 *2627:11 *2627:10 3.751786
4 *2627:12 *2627:11 0.5
5 *2627:10 *301:A2 1
6 *2627:18 *2627:17 0.4946429
7 *2627:19 *2627:18 0.5
8 *2627:16 *2627:15 1.851786
9 *2627:17 *2627:16 0.5
10 *2627:15 *69:A2 1
11 *2627:20 *2627:19 1.604464
12 *2627:20 *2627:14 2.147322
13 *2627:21 *2627:20 0.5
14 *2627:23 *2627:22 0.5
15 *2627:23 *2627:9 0.2825
16 *2627:22 *2627:21 31.4375
17 *2627:24 *2627:23 0.5
18 *2627:24 *2627:8 0.5
19 *2627:8 *2627:7 0.4946429
20 *2627:7 *346:A2 1
21 *2627:25 *2627:24 1.0375
22 *2627:26 *2627:25 0.5
23 *2627:28 *2627:27 0.5
24 *2627:27 *2627:26 12.98036
25 *2627:30 *2627:29 0.5
26 *2627:29 *2627:28 8.366073
27 *2627:31 *389:A2 1.126
28 *2627:32 *2627:31 1
29 *2627:32 *2627:30 2.123214
30 *2627:6 *388:A4 1
31 *2627:33 *2627:32 0.5
32 *2627:35 *2627:34 0.5
33 *2627:34 *2627:33 1.0375
34 *2627:36 *2627:35 2.690179
35 *2627:36 *2627:6 2.41875
36 *2627:37 *2627:36 0.5
37 *2627:39 *2627:38 0.5
38 *2627:38 *2627:37 2.123214
39 *2627:40 *2627:39 0.4946429

*END

*D_NET *2631 2.730693 //LENGTH 27.993 LUMPCC 0 DR

*CONN
*I *241:Q O *L 0 *C 28.560 39.048
*I *210:A5 I *L 0.566579 *C 30.384 42.696
*I *322:A4 I *L 0.514778 *C 29.320 45.888
*I *95:A4 I *L 0.514778 *C 24.608 45.888
*I *94:A2 I *L 0.504426 *C 22.480 45.736
*I *63:A6 I *L 0.558565 *C 19.440 46.344
*I *319:A2 I *L 0.45541 *C 32.360 40.872
*N *2631:7 *C 32.360 40.858
*N *2631:8 *C 32.360 40.582
*N *2631:9 *C 32.346 40.568
*N *2631:10 *C 19.440 46.212
*N *2631:11 *C 19.440 46.332
*N *2631:12 *C 19.454 46.344
*N *2631:13 *C 22.480 45.750
*N *2631:14 *C 22.480 46.331
*N *2631:15 *C 22.480 46.344
*N *2631:16 *C 24.608 45.902
*N *2631:17 *C 24.608 46.331
*N *2631:18 *C 24.608 46.344
*N *2631:19 *C 29.320 45.902
*N *2631:20 *C 29.320 46.331
*N *2631:21 *C 29.320 46.344
*N *2631:22 *C 30.827 46.344
*N *2631:23 *C 30.840 46.331
*N *2631:24 *C 30.840 42.696
*N *2631:25 *C 30.688 42.696
*N *2631:26 *C 30.384 42.683
*N *2631:27 *C 30.384 41.190
*N *2631:28 *C 30.398 41.176
*N *2631:29 *C 30.675 41.176
*N *2631:30 *C 30.688 41.176
*N *2631:31 *C 30.840 41.176
*N *2631:32 *C 30.840 40.582
*N *2631:33 *C 30.840 40.568
*N *2631:34 *C 28.574 40.568
*N *2631:35 *C 28.560 40.555
*N *2631:36 *C 28.560 39.062

*CAP
0 *241:Q 0.001
1 *210:A5 0.001
2 *322:A4 0.001
3 *95:A4 0.001
4 *94:A2 0.001
5 *63:A6 0.001
6 *319:A2 0.001
7 *2631:7 0.01943665
8 *2631:8 0.02086933
9 *2631:9 0.06991095
10 *2631:10 0.01402675
11 *2631:11 0.005872787
12 *2631:12 0.1136939
13 *2631:13 0.04446412
14 *2631:14 0.0458968
15 *2631:15 0.2011153
16 *2631:16 0.02571392
17 *2631:17 0.0271466
18 *2631:18 0.2762602
19 *2631:19 0.03221793
20 *2631:20 0.03365061
21 *2631:21 0.2515694
22 *2631:22 0.05838159
23 *2631:23 0.2009306
24 *2631:24 0.2123924
25 *2631:25 0.12702
26 *2631:26 0.1032145
27 *2631:27 0.1046472
28 *2631:28 0.01487682
29 *2631:29 0.01487682
30 *2631:30 0.1241442
31 *2631:31 0.05161878
32 *2631:32 0.04066052
33 *2631:33 0.1821343
34 *2631:34 0.1098512
35 *2631:35 0.09926601
36 *2631:36 0.09783334

*RES
0 *241:Q *2631:36 1
1 *2631:8 *2631:7 0.4946429
2 *2631:9 *2631:8 0.5
3 *2631:7 *319:A2 1
4 *2631:32 *2631:31 1.061607
5 *2631:33 *2631:32 0.5
6 *2631:33 *2631:9 2.690179
7 *2631:30 *2631:29 0.5
8 *2631:30 *2631:25 2.714286
9 *2631:29 *2631:28 0.4946429
10 *2631:27 *2631:26 2.666071
11 *2631:28 *2631:27 0.5
12 *2631:26 *210:A5 1
13 *2631:23 *2631:22 0.5
14 *2631:22 *2631:21 2.690179
15 *2631:20 *2631:19 0.7660714
16 *2631:21 *2631:20 0.5
17 *2631:21 *2631:18 8.414287
18 *2631:19 *322:A4 1
19 *2631:35 *2631:34 0.5
20 *2631:34 *2631:33 4.047322
21 *2631:36 *2631:35 2.666072
22 *2631:17 *2631:16 0.7660714
23 *2631:18 *2631:17 0.5
24 *2631:18 *2631:15 3.8
25 *2631:16 *95:A4 1
26 *2631:14 *2631:13 1.0375
27 *2631:15 *2631:14 0.5
28 *2631:15 *2631:12 5.404464
29 *2631:13 *94:A2 1
30 *2631:11 *63:A6 1
31 *2631:11 *2631:10 0.1991667
32 *2631:12 *2631:11 0.5
33 *2631:31 *2631:30 0.2714286
34 *2631:25 *2631:24 0.2714286
35 *2631:24 *2631:23 6.490179

*END

*D_NET *2636 2.157299 //LENGTH 22.726 LUMPCC 0 DR

*CONN
*I *339:Q O *L 0 *C 31.904 37.832
*I *258:A1 I *L 0.666174 *C 32.360 34.336
*I *272:A1 I *L 0.526794 *C 30.688 32.512
*I *277:A3 I *L 0.507548 *C 29.320 33.576
*I *505:A2 I *L 0.52073 *C 27.952 34.032
*I *102:A2 I *L 0.504426 *C 24.912 32.360
*I *103:A2 I *L 0.515513 *C 24.304 34.944
*I *106:A6 I *L 0.609639 *C 22.176 33.728
*I *278:A2 I *L 0.578798 *C 31.904 36.008
*N *2636:9 *C 31.904 36.022
*N *2636:10 *C 22.176 33.729
*N *2636:11 *C 22.176 34.474
*N *2636:12 *C 22.190 34.488
*N *2636:13 *C 24.304 34.931
*N *2636:14 *C 24.304 34.792
*N *2636:15 *C 24.318 34.792
*N *2636:16 *C 24.899 34.792
*N *2636:17 *C 24.912 34.779
*N *2636:18 *C 24.912 32.373
*N *2636:19 *C 24.912 34.488
*N *2636:20 *C 24.912 34.488
*N *2636:21 *C 27.952 34.488
*N *2636:22 *C 27.952 34.032
*N *2636:23 *C 27.952 34.172
*N *2636:24 *C 27.952 34.184
*N *2636:25 *C 29.320 33.590
*N *2636:26 *C 29.320 34.171
*N *2636:27 *C 29.320 34.184
*N *2636:28 *C 30.688 32.526
*N *2636:29 *C 30.688 34.171
*N *2636:30 *C 30.688 34.184
*N *2636:31 *C 32.346 34.184
*N *2636:32 *C 32.360 34.197
*N *2636:33 *C 32.360 34.349
*N *2636:34 *C 32.360 36.299
*N *2636:35 *C 32.346 36.312
*N *2636:36 *C 31.918 36.312
*N *2636:37 *C 31.904 36.312
*N *2636:38 *C 31.904 37.819

*CAP
0 *339:Q 0.001
1 *258:A1 0.001
2 *272:A1 0.001
3 *277:A3 0.001
4 *505:A2 0.001
5 *102:A2 0.001
6 *103:A2 0.001
7 *106:A6 0.001
8 *278:A2 0.001
9 *2636:9 0.01774918
10 *2636:10 0.0404544
11 *2636:11 0.04188708
12 *2636:12 0.1165754
13 *2636:13 0.0142296
14 *2636:14 0.01566228
15 *2636:15 0.03042718
16 *2636:16 0.03042718
17 *2636:17 0.01631412
18 *2636:18 0.1278343
19 *2636:19 0.1479533
20 *2636:20 0.2543951
21 *2636:21 0.1510394
22 *2636:22 0.01264337
23 *2636:23 0.01407605
24 *2636:24 0.0774655
25 *2636:25 0.03353691
26 *2636:26 0.03496959
27 *2636:27 0.1277762
28 *2636:28 0.08473345
29 *2636:29 0.08616613
30 *2636:30 0.1374645
31 *2636:31 0.073934
32 *2636:32 0.01329454
33 *2636:33 0.1240363
34 *2636:34 0.1098023
35 *2636:35 0.02442117
36 *2636:36 0.02442117
37 *2636:37 0.09379806
38 *2636:38 0.07081132

*RES
0 *339:Q *2636:38 1
1 *2636:33 *258:A1 1
2 *2636:33 *2636:32 0.255
3 *2636:38 *2636:37 2.690179
4 *2636:9 *278:A2 1
5 *2636:34 *2636:33 3.480358
6 *2636:35 *2636:34 0.5
7 *2636:37 *2636:36 0.5
8 *2636:37 *2636:9 0.5187501
9 *2636:36 *2636:35 0.7660715
10 *2636:32 *2636:31 0.5
11 *2636:31 *2636:30 2.961607
12 *2636:29 *2636:28 2.9375
13 *2636:30 *2636:29 0.5
14 *2636:30 *2636:27 2.442857
15 *2636:28 *272:A1 1
16 *2636:26 *2636:25 1.0375
17 *2636:27 *2636:26 0.5
18 *2636:27 *2636:24 2.442857
19 *2636:25 *277:A3 1
20 *2636:23 *2636:22 0.2325
21 *2636:24 *2636:23 0.5
22 *2636:24 *2636:21 0.5428572
23 *2636:22 *505:A2 1
24 *2636:19 *2636:18 3.775893
25 *2636:19 *2636:17 0.51875
26 *2636:20 *2636:19 0.5
27 *2636:20 *2636:12 4.861608
28 *2636:18 *102:A2 1
29 *2636:17 *2636:16 0.5
30 *2636:16 *2636:15 1.0375
31 *2636:14 *2636:13 0.2325
32 *2636:15 *2636:14 0.5
33 *2636:13 *103:A2 1
34 *2636:11 *2636:10 1.33125
35 *2636:12 *2636:11 0.5
36 *2636:10 *106:A6 1
37 *2636:21 *2636:20 5.428572

*END

*D_NET *2641 2.101591 //LENGTH 21.271 LUMPCC 0 DR

*CONN
*I *248:Q O *L 0 *C 38.288 15.640
*I *507:A5 I *L 0.542358 *C 43.912 10.624
*I *253:A2 I *L 0.578798 *C 43.760 14.120
*I *81:A1 I *L 0.47367 *C 38.136 10.776
*I *77:A2 I *L 0.504426 *C 37.832 8.952
*I *65:A4 I *L 0.552216 *C 36.768 7.736
*N *2641:6 *C 36.768 7.737
*N *2641:7 *C 36.768 9.242
*N *2641:8 *C 36.782 9.256
*N *2641:9 *C 37.832 8.966
*N *2641:10 *C 37.832 9.242
*N *2641:11 *C 37.832 9.256
*N *2641:12 *C 38.123 9.256
*N *2641:13 *C 38.136 9.270
*N *2641:14 *C 38.136 10.776
*N *2641:15 *C 37.954 11.688
*N *2641:16 *C 43.608 12.114
*N *2641:17 *C 43.761 14.120
*N *2641:18 *C 43.912 14.120
*N *2641:19 *C 43.912 10.638
*N *2641:20 *C 43.912 12.296
*N *2641:21 *C 43.899 12.296
*N *2641:22 *C 43.622 12.296
*N *2641:23 *C 43.608 12.284
*N *2641:24 *C 43.595 12.296
*N *2641:25 *C 38.150 12.296
*N *2641:26 *C 38.136 12.283
*N *2641:27 *C 38.136 11.702
*N *2641:28 *C 38.123 11.688
*N *2641:29 *C 38.136 11.688
*N *2641:30 *C 38.288 11.688
*N *2641:31 *C 38.288 15.627

*CAP
0 *248:Q 0.001
1 *507:A5 0.001
2 *253:A2 0.001
3 *81:A1 0.001
4 *77:A2 0.001
5 *65:A4 0.001
6 *2641:6 0.1017561
7 *2641:7 0.1031888
8 *2641:8 0.05908659
9 *2641:9 0.02654186
10 *2641:10 0.02797454
11 *2641:11 0.07880774
12 *2641:12 0.01734894
13 *2641:13 0.09760455
14 *2641:14 0.1570363
15 *2641:15 0.01326453
16 *2641:16 0.01299736
17 *2641:17 0.007524703
18 *2641:18 0.1151789
19 *2641:19 0.07677042
20 *2641:20 0.1820524
21 *2641:21 0.01584261
22 *2641:22 0.01584316
23 *2641:23 0.008254546
24 *2641:24 0.1678952
25 *2641:25 0.1678952
26 *2641:26 0.02582694
27 *2641:27 0.02582642
28 *2641:28 0.008520642
29 *2641:29 0.06747139
30 *2641:30 0.2639326
31 *2641:31 0.2511486

*RES
0 *248:Q *2641:31 1
1 *2641:19 *507:A5 1
2 *2641:17 *253:A2 1
3 *2641:31 *2641:30 7.033036
4 *2641:14 *81:A1 1
5 *2641:14 *2641:13 2.690179
6 *2641:20 *2641:19 2.961607
7 *2641:20 *2641:18 3.257143
8 *2641:21 *2641:20 0.5
9 *2641:22 *2641:21 0.4946429
10 *2641:23 *2641:22 0.5
11 *2641:23 *2641:16 0.2825
12 *2641:24 *2641:23 0.5
13 *2641:26 *2641:25 0.5
14 *2641:25 *2641:24 9.723215
15 *2641:28 *2641:27 0.5
16 *2641:28 *2641:15 0.2825
17 *2641:27 *2641:26 1.0375
18 *2641:29 *2641:28 0.5
19 *2641:29 *2641:14 1.628572
20 *2641:13 *2641:12 0.5
21 *2641:12 *2641:11 0.5187501
22 *2641:10 *2641:9 0.4946429
23 *2641:11 *2641:10 0.5
24 *2641:11 *2641:8 1.875893
25 *2641:9 *77:A2 1
26 *2641:7 *2641:6 2.688393
27 *2641:8 *2641:7 0.5
28 *2641:6 *65:A4 1
29 *2641:30 *2641:29 0.2714286
30 *2641:18 *2641:17 0.2696429

*END

*D_NET *2646 1.489951 //LENGTH 12.930 LUMPCC 0 DR

*CONN
*I *365:Q O *L 0 *C 30.232 8.952
*I *357:A4 I *L 0.569168 *C 29.472 10.624
*I *55:A4 I *L 0.552216 *C 30.840 15.640
*I *271:A1 I *L 1.20536 *C 33.272 16.096
*N *2646:4 *C 29.928 9.187
*N *2646:5 *C 29.928 9.682
*N *2646:6 *C 33.272 16.082
*N *2646:7 *C 33.272 15.654
*N *2646:8 *C 33.259 15.640
*N *2646:9 *C 30.840 15.508
*N *2646:10 *C 30.840 15.628
*N *2646:11 *C 30.840 15.640
*N *2646:12 *C 30.398 15.640
*N *2646:13 *C 30.384 15.627
*N *2646:14 *C 30.384 11.080
*N *2646:15 *C 30.232 11.080
*N *2646:16 *C 30.232 9.726
*N *2646:17 *C 30.232 9.712
*N *2646:18 *C 30.232 9.694
*N *2646:19 *C 30.262 9.682
*N *2646:20 *C 30.262 9.187
*N *2646:21 *C 30.262 9.007
*N *2646:22 *C 29.472 10.611
*N *2646:23 *C 29.472 9.270
*N *2646:24 *C 29.486 9.256
*N *2646:25 *C 30.219 9.256
*N *2646:26 *C 30.232 9.242
*N *2646:27 *C 30.232 8.966
*N *2646:28 *C 30.232 8.952

*CAP
0 *365:Q 0.001
1 *357:A4 0.001
2 *55:A4 0.001
3 *271:A1 0.001
4 *2646:4 0.001
5 *2646:5 0.001
6 *2646:6 0.02628911
7 *2646:7 0.02772179
8 *2646:8 0.1131431
9 *2646:9 0.01769204
10 *2646:10 0.009538081
11 *2646:11 0.135864
12 *2646:12 0.02232557
13 *2646:13 0.3101205
14 *2646:14 0.3217869
15 *2646:15 0.1063411
16 *2646:16 0.09497153
17 *2646:17 0.003180225
18 *2646:18 0.005255623
19 *2646:19 0.001
20 *2646:20 0.001
21 *2646:21 0.001
22 *2646:22 0.07012576
23 *2646:23 0.07155844
24 *2646:24 0.04515734
25 *2646:25 0.04515734
26 *2646:26 0.02757754
27 *2646:27 0.02614486
28 *2646:28 0.001

*RES
0 *365:Q *2646:28 0.001
1 *2646:7 *2646:6 0.7660715
2 *2646:8 *2646:7 0.5
3 *2646:6 *271:A1 1
4 *2646:10 *55:A4 1
5 *2646:10 *2646:9 0.1991667
6 *2646:11 *2646:10 0.5
7 *2646:11 *2646:8 4.31875
8 *2646:13 *2646:12 0.5
9 *2646:12 *2646:11 0.7901786
10 *2646:17 *2646:16 1
11 *2646:16 *2646:15 2.41875
12 *2646:22 *357:A4 1
13 *2646:23 *2646:22 2.394643
14 *2646:24 *2646:23 0.5
15 *2646:26 *2646:25 0.5
16 *2646:25 *2646:24 1.308929
17 *2646:27 *2646:26 0.4946429
18 *2646:15 *2646:14 0.2714286
19 *2646:14 *2646:13 8.118751
20 *2646:18 *2646:17 0.01590909
21 *2646:18 *2646:5 0.608
22 *2646:20 *2646:19 0.9900001
23 *2646:20 *2646:4 0.6680001
24 *2646:19 *2646:18 0.06
25 *2646:21 *2646:20 0.36
26 *2646:28 *2646:27 1
27 *2646:28 *2646:21 0.05027273

*END

*D_NET *2648 0.9312811 //LENGTH 7.345 LUMPCC 0 DR

*CONN
*I *367:Q O *L 0 *C 29.168 15.640
*I *71:A I *L 0.582888 *C 29.776 17.464
*I *359:A4 I *L 0.569168 *C 30.992 17.312
*I *115:A6 I *L 0.609639 *C 30.992 20.352
*N *2648:4 *C 30.992 20.351
*N *2648:5 *C 30.992 17.325
*N *2648:6 *C 30.992 17.477
*N *2648:7 *C 30.979 17.464
*N *2648:8 *C 29.776 17.282
*N *2648:9 *C 29.776 17.451
*N *2648:10 *C 29.776 17.464
*N *2648:11 *C 29.181 17.464
*N *2648:12 *C 29.168 17.451
*N *2648:13 *C 29.168 15.654

*CAP
0 *367:Q 0.001
1 *71:A 0.001
2 *359:A4 0.001
3 *115:A6 0.001
4 *2648:4 0.2319041
5 *2648:5 0.01463621
6 *2648:6 0.2517779
7 *2648:7 0.05879413
8 *2648:8 0.0195457
9 *2648:9 0.01336858
10 *2648:10 0.09017736
11 *2648:11 0.02901102
12 *2648:12 0.1097494
13 *2648:13 0.1083167

*RES
0 *367:Q *2648:13 1
1 *2648:4 *115:A6 1
2 *2648:5 *359:A4 1
3 *2648:6 *2648:5 0.255
4 *2648:6 *2648:4 5.13125
5 *2648:7 *2648:6 0.5
6 *2648:9 *71:A 1
7 *2648:9 *2648:8 0.2825
8 *2648:10 *2648:9 0.5
9 *2648:10 *2648:7 2.147322
10 *2648:12 *2648:11 0.5
11 *2648:11 *2648:10 1.061607
12 *2648:13 *2648:12 3.208929

*END

*D_NET *2652 2.285635 //LENGTH 28.028 LUMPCC 0 DR

*CONN
*I *375:Q O *L 0 *C 25.824 5.608
*I *82:A I *L 0.582888 *C 43.608 7.432
*I *112:A6 I *L 0.609639 *C 43.152 9.712
*I *347:A4 I *L 0.569168 *C 24.912 9.408
*N *2652:4 *C 24.912 9.395
*N *2652:5 *C 24.912 8.357
*N *2652:6 *C 24.899 8.344
*N *2652:7 *C 24.760 8.344
*N *2652:8 *C 24.760 8.331
*N *2652:9 *C 24.760 7.446
*N *2652:10 *C 24.774 7.432
*N *2652:11 *C 25.672 7.250
*N *2652:12 *C 43.152 9.711
*N *2652:13 *C 43.608 7.446
*N *2652:14 *C 43.608 7.584
*N *2652:15 *C 43.456 7.584
*N *2652:16 *C 43.456 8.344
*N *2652:17 *C 43.152 8.344
*N *2652:18 *C 43.152 8.344
*N *2652:19 *C 43.291 8.344
*N *2652:20 *C 43.304 8.331
*N *2652:21 *C 43.304 7.446
*N *2652:22 *C 43.291 7.432
*N *2652:23 *C 25.686 7.432
*N *2652:24 *C 25.672 7.420
*N *2652:25 *C 25.684 7.432
*N *2652:26 *C 25.812 7.432
*N *2652:27 *C 25.824 7.419
*N *2652:28 *C 25.824 5.622

*CAP
0 *375:Q 0.001
1 *82:A 0.001
2 *112:A6 0.001
3 *347:A4 0.001
4 *2652:4 0.06468764
5 *2652:5 0.06612032
6 *2652:6 0.008757932
7 *2652:7 0.008758478
8 *2652:8 0.04048894
9 *2652:9 0.04048894
10 *2652:10 0.03718366
11 *2652:11 0.01185953
12 *2652:12 0.08313464
13 *2652:13 0.008466125
14 *2652:14 0.02079091
15 *2652:15 0.06010472
16 *2652:16 0.0669654
17 *2652:17 0.09994788
18 *2652:18 0.0106449
19 *2652:19 0.01064544
20 *2652:20 0.04141909
21 *2652:21 0.04141961
22 *2652:22 0.6509587
23 *2652:23 0.6509587
24 *2652:24 0.007116714
25 *2652:25 0.04713763
26 *2652:26 0.007581755
27 *2652:27 0.09871472
28 *2652:28 0.09728204

*RES
0 *375:Q *2652:28 1
1 *2652:13 *82:A 1
2 *2652:12 *112:A6 1
3 *2652:27 *2652:26 0.5
4 *2652:26 *2652:25 0.2116667
5 *2652:28 *2652:27 3.208929
6 *2652:17 *2652:16 0.5428572
7 *2652:17 *2652:12 2.441072
8 *2652:18 *2652:17 0.5
9 *2652:19 *2652:18 0.2325
10 *2652:20 *2652:19 0.5
11 *2652:21 *2652:20 1.580357
12 *2652:22 *2652:21 0.5
13 *2652:24 *2652:23 0.5
14 *2652:24 *2652:11 0.2825
15 *2652:23 *2652:22 31.4375
16 *2652:25 *2652:24 0.5
17 *2652:25 *2652:10 1.626786
18 *2652:10 *2652:9 0.5
19 *2652:9 *2652:8 1.580357
20 *2652:7 *2652:6 0.2325
21 *2652:8 *2652:7 0.5
22 *2652:5 *2652:4 1.851786
23 *2652:6 *2652:5 0.5
24 *2652:4 *347:A4 1
25 *2652:16 *2652:15 1.357143
26 *2652:15 *2652:14 0.2714286
27 *2652:14 *2652:13 0.2473214

*END

*D_NET *2658 1.160276 //LENGTH 10.660 LUMPCC 0 DR

*CONN
*I *369:Q O *L 0 *C 13.816 27.800
*I *353:A4 I *L 0.569168 *C 19.136 27.344
*I *49:A4 I *L 0.552216 *C 19.408 29.016
*I *97:A I *L 0.582888 *C 18.973 30.840
*N *2658:4 *C 13.816 27.618
*N *2658:5 *C 18.845 30.840
*N *2658:6 *C 18.831 30.840
*N *2658:7 *C 18.680 30.840
*N *2658:8 *C 18.680 29.030
*N *2658:9 *C 18.694 29.016
*N *2658:10 *C 19.123 29.016
*N *2658:11 *C 19.151 29.016
*N *2658:12 *C 19.136 29.003
*N *2658:13 *C 19.136 27.358
*N *2658:14 *C 19.136 27.800
*N *2658:15 *C 19.123 27.800
*N *2658:16 *C 13.830 27.800
*N *2658:17 *C 13.816 27.788

*CAP
0 *369:Q 0.001
1 *353:A4 0.001
2 *49:A4 0.02523999
3 *97:A 0.01487736
4 *2658:4 0.01256783
5 *2658:5 0.01280197
6 *2658:6 0.008001271
7 *2658:7 0.1559172
8 *2658:8 0.1434683
9 *2658:9 0.01994578
10 *2658:10 0.01994578
11 *2658:11 0.02316459
12 *2658:12 0.09488881
13 *2658:13 0.03684497
14 *2658:14 0.1376141
15 *2658:15 0.2233035
16 *2658:16 0.2233035
17 *2658:17 0.006390711

*RES
0 *369:Q *2658:17 1
1 *2658:11 *49:A4 0.5140001
2 *2658:12 *2658:11 1
3 *2658:12 *2658:10 0.5
4 *2658:13 *353:A4 1
5 *2658:10 *2658:9 0.7660714
6 *2658:8 *2658:7 3.233036
7 *2658:9 *2658:8 0.5
8 *2658:5 *97:A 0.2133333
9 *2658:6 *2658:5 1
10 *2658:14 *2658:13 0.7901786
11 *2658:14 *2658:12 2.147322
12 *2658:15 *2658:14 0.5
13 *2658:17 *2658:16 0.5
14 *2658:17 *2658:4 0.2825
15 *2658:16 *2658:15 9.451786
16 *2658:7 *2658:6 0.2696429

*END

*D_NET *2661 2.708935 //LENGTH 27.808 LUMPCC 0 DR

*CONN
*I *501:Y O *L 0 *C 29.624 13.968
*I *53:A5 I *L 0.583269 *C 30.990 10.768
*I *65:A5 I *L 0.583269 *C 36.312 7.432
*I *67:A3 I *L 0.507548 *C 38.288 6.824
*I *69:A3 I *L 0.498109 *C 41.176 6.824
*I *112:A5 I *L 0.583269 *C 43.000 9.256
*N *2661:6 *C 43.000 9.242
*N *2661:7 *C 43.000 6.534
*N *2661:8 *C 42.986 6.520
*N *2661:9 *C 41.480 6.520
*N *2661:10 *C 41.480 6.824
*N *2661:11 *C 41.176 6.642
*N *2661:12 *C 41.176 6.812
*N *2661:13 *C 41.176 6.824
*N *2661:14 *C 41.176 7.128
*N *2661:15 *C 39.062 7.128
*N *2661:16 *C 39.048 7.142
*N *2661:17 *C 39.048 8.331
*N *2661:18 *C 39.048 8.343
*N *2661:19 *C 39.048 8.040
*N *2661:20 *C 38.288 6.838
*N *2661:21 *C 38.288 8.027
*N *2661:22 *C 38.288 8.040
*N *2661:23 *C 36.312 7.433
*N *2661:24 *C 36.312 8.027
*N *2661:25 *C 36.312 8.040
*N *2661:26 *C 31.006 8.040
*N *2661:27 *C 30.992 8.053
*N *2661:28 *C 30.885 10.776
*N *2661:29 *C 30.841 10.776
*N *2661:30 *C 30.992 10.776
*N *2661:31 *C 30.992 13.803
*N *2661:32 *C 30.979 13.816
*N *2661:33 *C 29.638 13.816
*N *2661:34 *C 29.624 13.816
*N *2661:35 *C 29.624 13.956

*CAP
0 *501:Y 0.001
1 *53:A5 0.0108676
2 *65:A5 0.001
3 *67:A3 0.001
4 *69:A3 0.001
5 *112:A5 0.001
6 *2661:6 0.1466238
7 *2661:7 0.1480565
8 *2661:8 0.06262174
9 *2661:9 0.07900466
10 *2661:10 0.03282937
11 *2661:11 0.01658443
12 *2661:12 0.01040732
13 *2661:13 0.03027861
14 *2661:14 0.1146243
15 *2661:15 0.09842048
16 *2661:16 0.05198026
17 *2661:17 0.05198026
18 *2661:18 0.01025356
19 *2661:19 0.0473173
20 *2661:20 0.07723973
21 *2661:21 0.07867241
22 *2661:22 0.1281718
23 *2661:23 0.03952487
24 *2661:24 0.04095755
25 *2661:25 0.3354672
26 *2661:26 0.2396152
27 *2661:27 0.166929
28 *2661:28 0.0087922
29 *2661:29 0.007496365
30 *2661:30 0.3528402
31 *2661:31 0.171595
32 *2661:32 0.05769332
33 *2661:33 0.05769332
34 *2661:34 0.01541462
35 *2661:35 0.01398194

*RES
0 *501:Y *2661:35 1
1 *2661:7 *2661:6 4.837501
2 *2661:8 *2661:7 0.5
3 *2661:6 *112:A5 1
4 *2661:12 *69:A3 1
5 *2661:12 *2661:11 0.2825
6 *2661:13 *2661:12 0.5
7 *2661:13 *2661:10 0.5428572
8 *2661:15 *2661:14 3.775893
9 *2661:16 *2661:15 0.5
10 *2661:18 *2661:17 0.5
11 *2661:17 *2661:16 2.123214
12 *2661:21 *2661:20 2.123214
13 *2661:22 *2661:21 0.5
14 *2661:22 *2661:19 1.357143
15 *2661:20 *67:A3 1
16 *2661:24 *2661:23 1.059822
17 *2661:25 *2661:24 0.5
18 *2661:25 *2661:22 3.528572
19 *2661:23 *65:A5 1
20 *2661:27 *2661:26 0.5
21 *2661:26 *2661:25 9.475893
22 *2661:28 *53:A5 0.01666667
23 *2661:29 *2661:28 1
24 *2661:31 *2661:30 5.404464
25 *2661:32 *2661:31 0.5
26 *2661:34 *2661:33 0.5
27 *2661:33 *2661:32 2.394643
28 *2661:35 *2661:34 0.2325
29 *2661:30 *2661:29 0.2696429
30 *2661:30 *2661:27 4.861607
31 *2661:19 *2661:18 0.5410715
32 *2661:14 *2661:13 0.5428572
33 *2661:10 *2661:9 0.5428572
34 *2661:9 *2661:8 2.690179

*END

*D_NET *2673 0.7416441 //LENGTH 7.282 LUMPCC 0 DR

*CONN
*I *78:Y O *L 0 *C 6.368 39.656
*I *229:D I *L 0.543569 *C 5.456 34.032
*N *2673:2 *C 5.456 34.046
*N *2673:3 *C 5.456 34.488
*N *2673:4 *C 5.304 34.488
*N *2673:5 *C 5.304 39.035
*N *2673:6 *C 5.317 39.048
*N *2673:7 *C 6.355 39.048
*N *2673:8 *C 6.368 39.062
*N *2673:9 *C 6.368 39.643

*CAP
0 *78:Y 0.001
1 *229:D 0.001
2 *2673:2 0.02362783
3 *2673:3 0.03524256
4 *2673:4 0.2535899
5 *2673:5 0.2434078
6 *2673:6 0.04168499
7 *2673:7 0.04168499
8 *2673:8 0.05091928
9 *2673:9 0.0494866

*RES
0 *78:Y *2673:9 1
1 *2673:2 *229:D 1
2 *2673:5 *2673:4 8.118751
3 *2673:6 *2673:5 0.5
4 *2673:8 *2673:7 0.5
5 *2673:7 *2673:6 1.851786
6 *2673:9 *2673:8 1.0375
7 *2673:4 *2673:3 0.2714286
8 *2673:3 *2673:2 0.7901786

*END

*D_NET *2680 0.5519924 //LENGTH 5.067 LUMPCC 0 DR

*CONN
*I *159:Y O *L 0 *C 8.648 37.528
*I *160:A2 I *L 0.693299 *C 7.282 40.872
*N *2680:2 *C 7.280 40.846
*N *2680:3 *C 7.280 39.974
*N *2680:4 *C 7.294 39.960
*N *2680:5 *C 8.635 39.960
*N *2680:6 *C 8.648 39.947
*N *2680:7 *C 8.648 37.541

*CAP
0 *159:Y 0.001
1 *160:A2 0.001
2 *2680:2 0.0499603
3 *2680:3 0.05225773
4 *2680:4 0.05942011
5 *2680:5 0.05942011
6 *2680:6 0.1651834
7 *2680:7 0.1637508

*RES
0 *159:Y *2680:7 1
1 *2680:2 *160:A2 0.5
2 *2680:3 *2680:2 1.558036
3 *2680:4 *2680:3 0.5
4 *2680:6 *2680:5 0.5
5 *2680:5 *2680:4 2.394643
6 *2680:7 *2680:6 4.294643

*END

*D_NET *2683 8.597416 //LENGTH 90.027 LUMPCC 0 DR

*CONN
*I *172:Y O *L 0 *C 42.240 26.128
*I *295:A1 I *L 0.514394 *C 40.872 17.616
*I *289:A2 I *L 0.466516 *C 39.808 20.808
*I *329:A1 I *L 0.549073 *C 36.312 25.672
*I *280:A1 I *L 0.549073 *C 29.624 27.800
*I *277:A1 I *L 0.514394 *C 28.864 34.336
*I *505:A5 I *L 0.583269 *C 27.344 34.184
*I *317:A1 I *L 0.549073 *C 23.544 42.392
*I *325:A1 I *L 0.526794 *C 22.480 42.544
*I *285:A1 I *L 0.549073 *C 22.906 27.825
*I *211:A1 I *L 0.582918 *C 11.689 42.696
*I *327:A5 I *L 0.583269 *C 27.344 42.696
*I *313:A3 I *L 0.532459 *C 31.448 43.608
*I *236:A1 I *L 0.520769 *C 27.496 41.024
*I *272:A3 I *L 0.532459 *C 30.840 33.272
*N *2683:15 *C 30.840 33.090
*N *2683:16 *C 30.840 33.260
*N *2683:17 *C 30.827 33.272
*N *2683:18 *C 27.496 41.038
*N *2683:19 *C 27.496 41.176
*N *2683:20 *C 31.448 43.426
*N *2683:21 *C 31.448 43.596
*N *2683:22 *C 31.434 43.608
*N *2683:23 *C 27.358 43.608
*N *2683:24 *C 27.344 43.595
*N *2683:25 *C 27.344 42.696
*N *2683:26 *C 11.688 42.514
*N *2683:27 *C 11.506 42.696
*N *2683:28 *C 11.750 42.696
*N *2683:29 *C 11.750 42.696
*N *2683:30 *C 11.688 42.696
*N *2683:31 *C 11.676 42.696
*N *2683:32 *C 11.688 42.684
*N *2683:33 *C 11.702 42.696
*N *2683:34 *C 22.315 42.696
*N *2683:35 *C 22.328 42.683
*N *2683:36 *C 22.328 42.406
*N *2683:37 *C 22.341 42.392
*N *2683:38 *C 22.647 27.800
*N *2683:39 *C 22.632 27.814
*N *2683:40 *C 22.480 42.531
*N *2683:41 *C 22.480 42.392
*N *2683:42 *C 22.632 42.379
*N *2683:43 *C 22.632 42.392
*N *2683:44 *C 23.544 42.260
*N *2683:45 *C 23.544 42.380
*N *2683:46 *C 23.544 42.392
*N *2683:47 *C 27.331 42.392
*N *2683:48 *C 27.344 42.392
*N *2683:49 *C 27.344 41.176
*N *2683:50 *C 27.344 34.184
*N *2683:51 *C 27.344 33.285
*N *2683:52 *C 27.358 33.272
*N *2683:53 *C 28.864 34.323
*N *2683:54 *C 28.864 33.285
*N *2683:55 *C 28.864 33.272
*N *2683:56 *C 29.624 33.272
*N *2683:57 *C 29.624 33.259
*N *2683:58 *C 29.624 27.800
*N *2683:59 *C 29.624 26.598
*N *2683:60 *C 29.638 26.584
*N *2683:61 *C 36.130 25.672
*N *2683:62 *C 36.312 25.540
*N *2683:63 *C 36.312 25.660
*N *2683:64 *C 36.300 25.672
*N *2683:65 *C 36.312 25.686
*N *2683:66 *C 36.312 26.571
*N *2683:67 *C 36.312 26.584
*N *2683:68 *C 39.808 20.809
*N *2683:69 *C 39.808 26.571
*N *2683:70 *C 39.808 26.584
*N *2683:71 *C 40.858 26.584
*N *2683:72 *C 40.872 26.571
*N *2683:73 *C 40.690 18.376
*N *2683:74 *C 40.872 17.630
*N *2683:75 *C 40.872 18.363
*N *2683:76 *C 40.860 18.376
*N *2683:77 *C 40.872 18.390
*N *2683:78 *C 40.872 25.672
*N *2683:79 *C 40.886 25.672
*N *2683:80 *C 42.227 25.672
*N *2683:81 *C 42.240 25.686
*N *2683:82 *C 42.240 26.114

*CAP
0 *172:Y 0.001
1 *295:A1 0.001
2 *289:A2 0.001
3 *329:A1 0.001
4 *280:A1 0.001
5 *277:A1 0.001
6 *505:A5 0.001
7 *317:A1 0.001
8 *325:A1 0.001
9 *285:A1 0.02129583
10 *211:A1 0.02281363
11 *327:A5 0.001
12 *313:A3 0.001
13 *236:A1 0.001
14 *272:A3 0.001
15 *2683:15 0.01668301
16 *2683:16 0.0105059
17 *2683:17 0.06249717
18 *2683:18 0.01157045
19 *2683:19 0.02417896
20 *2683:20 0.01554264
21 *2683:21 0.009365523
22 *2683:22 0.1985532
23 *2683:23 0.1985532
24 *2683:24 0.05356847
25 *2683:25 0.07114089
26 *2683:26 0.01158045
27 *2683:27 0.01272592
28 *2683:28 0.01658744
29 *2683:29 0.0140946
30 *2683:30 0.001
31 *2683:31 0.007982031
32 *2683:32 0.006837633
33 *2683:33 0.3507112
34 *2683:34 0.3507112
35 *2683:35 0.01529854
36 *2683:36 0.01529801
37 *2683:37 0.01342002
38 *2683:38 0.01922043
39 *2683:39 0.796494
40 *2683:40 0.00966958
41 *2683:41 0.0225009
42 *2683:42 0.8052236
43 *2683:43 0.05166779
44 *2683:44 0.01697127
45 *2683:45 0.00881731
46 *2683:46 0.2145531
47 *2683:47 0.1782816
48 *2683:48 0.09420151
49 *2683:49 0.4975007
50 *2683:50 0.455433
51 *2683:51 0.04573716
52 *2683:52 0.07908129
53 *2683:53 0.08138467
54 *2683:54 0.08281735
55 *2683:55 0.1191881
56 *2683:56 0.102604
57 *2683:57 0.265222
58 *2683:58 0.3350552
59 *2683:59 0.06889357
60 *2683:60 0.314656
61 *2683:61 0.01319625
62 *2683:62 0.01657088
63 *2683:63 0.008416913
64 *2683:64 0.006475508
65 *2683:65 0.04597359
66 *2683:66 0.04597359
67 *2683:67 0.4796256
68 *2683:68 0.2854177
69 *2683:69 0.2866775
70 *2683:70 0.211752
71 *2683:71 0.04678349
72 *2683:72 0.03716382
73 *2683:73 0.01258562
74 *2683:74 0.04517109
75 *2683:75 0.04660377
76 *2683:76 0.007841733
77 *2683:77 0.2802638
78 *2683:78 0.3197993
79 *2683:79 0.0671905
80 *2683:80 0.06718995
81 *2683:81 0.02874222
82 *2683:82 0.02730954

*RES
0 *172:Y *2683:82 1
1 *2683:79 *2683:78 0.5
2 *2683:78 *2683:77 13.00447
3 *2683:78 *2683:72 1.604464
4 *2683:81 *2683:80 0.5
5 *2683:80 *2683:79 2.394643
6 *2683:82 *2683:81 0.7660714
7 *2683:76 *2683:75 0.5
8 *2683:76 *2683:73 0.2825
9 *2683:77 *2683:76 0.5
10 *2683:75 *2683:74 1.308929
11 *2683:74 *295:A1 1
12 *2683:71 *2683:70 1.875893
13 *2683:72 *2683:71 0.5
14 *2683:69 *2683:68 10.28839
15 *2683:70 *2683:69 0.5
16 *2683:70 *2683:67 6.242857
17 *2683:68 *289:A2 1
18 *2683:67 *2683:66 0.5
19 *2683:67 *2683:60 11.91875
20 *2683:66 *2683:65 1.580357
21 *2683:64 *2683:63 0.5
22 *2683:64 *2683:61 0.2825
23 *2683:65 *2683:64 0.5
24 *2683:63 *329:A1 1
25 *2683:63 *2683:62 0.1991667
26 *2683:16 *272:A3 1
27 *2683:16 *2683:15 0.2825
28 *2683:17 *2683:16 0.5
29 *2683:57 *2683:56 0.5
30 *2683:56 *2683:55 1.357143
31 *2683:56 *2683:17 2.147322
32 *2683:58 *280:A1 1
33 *2683:58 *2683:57 9.747323
34 *2683:59 *2683:58 2.147322
35 *2683:60 *2683:59 0.5
36 *2683:54 *2683:53 1.851786
37 *2683:55 *2683:54 0.5
38 *2683:55 *2683:52 2.690179
39 *2683:53 *277:A1 1
40 *2683:18 *236:A1 1
41 *2683:24 *2683:23 0.5
42 *2683:23 *2683:22 7.280358
43 *2683:21 *313:A3 1
44 *2683:21 *2683:20 0.2825
45 *2683:22 *2683:21 0.5
46 *2683:25 *327:A5 1
47 *2683:25 *2683:24 1.604464
48 *2683:50 *505:A5 1
49 *2683:50 *2683:49 12.48571
50 *2683:51 *2683:50 1.604464
51 *2683:52 *2683:51 0.5
52 *2683:48 *2683:47 0.5
53 *2683:48 *2683:25 0.5428572
54 *2683:47 *2683:46 6.761608
55 *2683:45 *317:A1 1
56 *2683:45 *2683:44 0.1991667
57 *2683:46 *2683:45 0.5
58 *2683:46 *2683:43 1.628572
59 *2683:42 *2683:41 0.2714286
60 *2683:42 *2683:39 26.00893
61 *2683:43 *2683:42 0.5
62 *2683:43 *2683:37 0.5187501
63 *2683:38 *285:A1 0.5180001
64 *2683:39 *2683:38 1
65 *2683:40 *325:A1 1
66 *2683:37 *2683:36 0.5
67 *2683:36 *2683:35 0.4946429
68 *2683:35 *2683:34 0.5
69 *2683:34 *2683:33 18.95179
70 *2683:32 *2683:31 0.5
71 *2683:32 *2683:26 0.2825
72 *2683:33 *2683:32 0.5
73 *2683:31 *2683:30 0.5
74 *2683:31 *2683:27 0.2825
75 *2683:30 *2683:29 0.05636364
76 *2683:28 *211:A1 0.1916667
77 *2683:29 *2683:28 0.5
78 *2683:41 *2683:40 0.2473214
79 *2683:49 *2683:48 2.171429
80 *2683:49 *2683:19 0.2714286
81 *2683:19 *2683:18 0.2473215

*END

*D_NET *2694 0.3397787 //LENGTH 3.562 LUMPCC 0 DR

*CONN
*I *144:Y O *L 0 *C 5.760 20.656
*I *145:A1 I *L 0.549073 *C 6.368 21.112
*I *297:A3 I *L 0.539281 *C 7.128 22.328
*N *2694:3 *C 7.128 22.315
*N *2694:4 *C 7.128 21.126
*N *2694:5 *C 7.115 21.112
*N *2694:6 *C 6.368 20.980
*N *2694:7 *C 6.368 21.100
*N *2694:8 *C 6.368 21.112
*N *2694:9 *C 5.774 21.112
*N *2694:10 *C 5.760 21.099
*N *2694:11 *C 5.760 20.669

*CAP
0 *144:Y 0.001
1 *145:A1 0.001
2 *297:A3 0.001
3 *2694:3 0.08280107
4 *2694:4 0.08423375
5 *2694:5 0.02846579
6 *2694:6 0.01432678
7 *2694:7 0.006172816
8 *2694:8 0.04829032
9 *2694:9 0.01942917
10 *2694:10 0.02724581
11 *2694:11 0.02581314

*RES
0 *144:Y *2694:11 1
1 *2694:4 *2694:3 2.123214
2 *2694:5 *2694:4 0.5
3 *2694:3 *297:A3 1
4 *2694:7 *145:A1 1
5 *2694:7 *2694:6 0.1991667
6 *2694:8 *2694:7 0.5
7 *2694:8 *2694:5 1.333036
8 *2694:10 *2694:9 0.5
9 *2694:9 *2694:8 1.061607
10 *2694:11 *2694:10 0.7660714

*END

*D_NET *2696 0.3021531 //LENGTH 2.798 LUMPCC 0 DR

*CONN
*I *142:Y O *L 0 *C 5.760 17.312
*I *143:A1 I *L 0.549073 *C 6.368 17.768
*I *310:A3 I *L 0.539281 *C 6.520 18.984
*N *2696:3 *C 6.519 18.984
*N *2696:4 *C 6.368 18.984
*N *2696:5 *C 6.368 17.768
*N *2696:6 *C 6.368 17.477
*N *2696:7 *C 6.355 17.464
*N *2696:8 *C 5.774 17.464
*N *2696:9 *C 5.760 17.451
*N *2696:10 *C 5.760 17.312

*CAP
0 *142:Y 0.001
1 *143:A1 0.001
2 *310:A3 0.001
3 *2696:3 0.005329521
4 *2696:4 0.09843895
5 *2696:5 0.1069419
6 *2696:6 0.01907001
7 *2696:7 0.02265257
8 *2696:8 0.02265257
9 *2696:9 0.01275014
10 *2696:10 0.01131746

*RES
0 *142:Y *2696:10 1
1 *2696:3 *310:A3 1
2 *2696:5 *143:A1 1
3 *2696:5 *2696:4 2.171429
4 *2696:6 *2696:5 0.5187501
5 *2696:7 *2696:6 0.5
6 *2696:9 *2696:8 0.5
7 *2696:8 *2696:7 1.0375
8 *2696:10 *2696:9 0.2325
9 *2696:4 *2696:3 0.2696429

*END

*D_NET *2699 1.003307 //LENGTH 10.855 LUMPCC 0 DR

*CONN
*I *139:Y O *L 0 *C 10.776 9.256
*I *205:A2 I *L 0.515513 *C 6.824 11.536
*I *205:A1 I *L 0.484201 *C 6.976 10.776
*I *140:A I *L 0.582888 *C 6.520 14.120
*N *2699:4 *C 6.520 13.938
*N *2699:5 *C 6.520 14.107
*N *2699:6 *C 6.534 14.120
*N *2699:7 *C 6.963 14.120
*N *2699:8 *C 6.976 14.107
*N *2699:9 *C 6.976 10.790
*N *2699:10 *C 6.824 11.523
*N *2699:11 *C 6.824 11.080
*N *2699:12 *C 6.976 11.080
*N *2699:13 *C 6.990 11.080
*N *2699:14 *C 10.763 11.080
*N *2699:15 *C 10.776 11.067
*N *2699:16 *C 10.776 9.270

*CAP
0 *139:Y 0.001
1 *205:A2 0.001
2 *205:A1 0.001
3 *140:A 0.001
4 *2699:4 0.013304
5 *2699:5 0.007126881
6 *2699:6 0.02173809
7 *2699:7 0.02173809
8 *2699:8 0.1499238
9 *2699:9 0.01381259
10 *2699:10 0.02971203
11 *2699:11 0.04264481
12 *2699:12 0.1766692
13 *2699:13 0.1720911
14 *2699:14 0.1720911
15 *2699:15 0.08994418
16 *2699:16 0.0885115

*RES
0 *139:Y *2699:16 1
1 *2699:9 *205:A1 1
2 *2699:12 *2699:11 0.2714286
3 *2699:12 *2699:9 0.5187501
4 *2699:12 *2699:8 5.404464
5 *2699:13 *2699:12 0.5
6 *2699:15 *2699:14 0.5
7 *2699:14 *2699:13 6.7375
8 *2699:16 *2699:15 3.208929
9 *2699:10 *205:A2 1
10 *2699:8 *2699:7 0.5
11 *2699:7 *2699:6 0.7660714
12 *2699:5 *140:A 1
13 *2699:5 *2699:4 0.2825
14 *2699:6 *2699:5 0.5
15 *2699:11 *2699:10 0.7901787

*END

*D_NET *2702 0.5418562 //LENGTH 6.769 LUMPCC 0 DR

*CONN
*I *160:Y O *L 0 *C 7.736 40.568
*I *161:A2 I *L 0.61189 *C 8.496 40.872
*I *211:A2 I *L 0.697809 *C 11.386 42.848
*N *2702:3 *C 7.736 40.386
*N *2702:4 *C 11.384 42.822
*N *2702:5 *C 11.384 40.886
*N *2702:6 *C 11.370 40.872
*N *2702:7 *C 8.496 40.690
*N *2702:8 *C 8.496 40.860
*N *2702:9 *C 8.496 40.872
*N *2702:10 *C 8.344 40.872
*N *2702:11 *C 8.344 40.568
*N *2702:12 *C 7.750 40.568
*N *2702:13 *C 7.736 40.556

*CAP
0 *160:Y 0.001
1 *161:A2 0.001
2 *211:A2 0.001
3 *2702:3 0.01249759
4 *2702:4 0.08349315
5 *2702:5 0.08579057
6 *2702:6 0.1097993
7 *2702:7 0.020883
8 *2702:8 0.01470589
9 *2702:9 0.117366
10 *2702:10 0.01999256
11 *2702:11 0.0414029
12 *2702:12 0.02660481
13 *2702:13 0.006320474

*RES
0 *160:Y *2702:13 1
1 *2702:5 *2702:4 3.458036
2 *2702:6 *2702:5 0.5
3 *2702:4 *211:A2 0.5
4 *2702:8 *161:A2 1
5 *2702:8 *2702:7 0.2825
6 *2702:9 *2702:8 0.5
7 *2702:9 *2702:6 5.133036
8 *2702:13 *2702:12 0.5
9 *2702:13 *2702:3 0.2825
10 *2702:12 *2702:11 1.061607
11 *2702:11 *2702:10 0.5428572
12 *2702:10 *2702:9 0.2714286

*END

*D_NET *2705 0.3331201 //LENGTH 3.679 LUMPCC 0 DR

*CONN
*I *213:Y O *L 0 *C 5.760 36.160
*I *214:A2 I *L 0.515513 *C 8.192 35.248
*N *2705:2 *C 8.192 35.248
*N *2705:3 *C 8.192 35.388
*N *2705:4 *C 8.178 35.400
*N *2705:5 *C 5.774 35.400
*N *2705:6 *C 5.760 35.413
*N *2705:7 *C 5.760 36.147

*CAP
0 *213:Y 0.001
1 *214:A2 0.001
2 *2705:2 0.01307824
3 *2705:3 0.01451092
4 *2705:4 0.1061177
5 *2705:5 0.1061177
6 *2705:6 0.04636411
7 *2705:7 0.04493143

*RES
0 *213:Y *2705:7 1
1 *2705:2 *214:A2 1
2 *2705:3 *2705:2 0.2325
3 *2705:4 *2705:3 0.5
4 *2705:6 *2705:5 0.5
5 *2705:5 *2705:4 4.294643
6 *2705:7 *2705:6 1.308929

*END

*D_NET *2706 1.192962 //LENGTH 12.826 LUMPCC 0 DR

*CONN
*I *148:Y O *L 0 *C 5.608 26.128
*I *149:A1 I *L 0.549073 *C 7.128 25.672
*I *221:A1 I *L 0.601783 *C 10.472 32.512
*I *87:A3 I *L 0.539281 *C 7.736 27.800
*N *2706:4 *C 10.472 32.498
*N *2706:5 *C 10.472 27.814
*N *2706:6 *C 10.459 27.800
*N *2706:7 *C 7.750 27.800
*N *2706:8 *C 7.735 27.800
*N *2706:9 *C 7.584 27.800
*N *2706:10 *C 7.584 26.598
*N *2706:11 *C 7.571 26.584
*N *2706:12 *C 7.128 25.673
*N *2706:13 *C 7.128 26.571
*N *2706:14 *C 7.128 26.584
*N *2706:15 *C 5.622 26.584
*N *2706:16 *C 5.608 26.571
*N *2706:17 *C 5.608 26.142

*CAP
0 *148:Y 0.001
1 *149:A1 0.001
2 *221:A1 0.001
3 *87:A3 0.001
4 *2706:4 0.231133
5 *2706:5 0.2325657
6 *2706:6 0.106101
7 *2706:7 0.106101
8 *2706:8 0.00242115
9 *2706:9 0.09216478
10 *2706:10 0.08119431
11 *2706:11 0.01991004
12 *2706:12 0.06006889
13 *2706:13 0.06150157
14 *2706:14 0.08675316
15 *2706:15 0.0644709
16 *2706:16 0.02300451
17 *2706:17 0.02157184

*RES
0 *148:Y *2706:17 1
1 *2706:8 *2706:7 0.5
2 *2706:8 *87:A3 1
3 *2706:7 *2706:6 4.837501
4 *2706:5 *2706:4 8.366072
5 *2706:6 *2706:5 0.5
6 *2706:4 *221:A1 1
7 *2706:10 *2706:9 2.147322
8 *2706:11 *2706:10 0.5
9 *2706:13 *2706:12 1.602679
10 *2706:14 *2706:13 0.5
11 *2706:14 *2706:11 0.7901785
12 *2706:12 *149:A1 1
13 *2706:16 *2706:15 0.5
14 *2706:15 *2706:14 2.690179
15 *2706:17 *2706:16 0.7660714
16 *2706:9 *2706:8 0.2696429

*END

*D_NET *2709 0.6438327 //LENGTH 7.557 LUMPCC 0 DR

*CONN
*I *137:Q O *L 0 *C 13.512 37.832
*I *159:A4 I *L 0.565045 *C 8.040 37.528
*I *214:A1 I *L 0.484201 *C 8.040 36.008
*N *2709:3 *C 8.040 36.022
*N *2709:4 *C 8.040 37.515
*N *2709:5 *C 8.053 37.528
*N *2709:6 *C 13.498 37.528
*N *2709:7 *C 13.512 37.541
*N *2709:8 *C 13.512 37.819

*CAP
0 *137:Q 0.001
1 *159:A4 0.001
2 *214:A1 0.001
3 *2709:3 0.09956498
4 *2709:4 0.09521592
5 *2709:5 0.2024008
6 *2709:6 0.2043776
7 *2709:7 0.02035303
8 *2709:8 0.01892035

*RES
0 *137:Q *2709:8 1
1 *2709:4 *159:A4 1
2 *2709:4 *2709:3 2.666071
3 *2709:5 *2709:4 0.5
4 *2709:7 *2709:6 0.5
5 *2709:6 *2709:5 9.723214
6 *2709:8 *2709:7 0.4946429
7 *2709:3 *214:A1 1

*END

*D_NET *2712 1.302514 //LENGTH 11.749 LUMPCC 0 DR

*CONN
*I *229:Q O *L 0 *C 9.408 34.488
*I *78:A3 I *L 0.539281 *C 7.128 39.048
*I *153:A1 I *L 0.549073 *C 5.611 41.204
*I *160:A1 I *L 0.598231 *C 6.976 41.024
*N *2712:4 *C 9.408 34.306
*N *2712:5 *C 6.976 41.012
*N *2712:6 *C 5.748 41.176
*N *2712:7 *C 5.760 41.163
*N *2712:8 *C 5.760 40.886
*N *2712:9 *C 5.774 40.872
*N *2712:10 *C 6.963 40.872
*N *2712:11 *C 6.976 40.846
*N *2712:12 *C 6.976 40.568
*N *2712:13 *C 7.128 40.568
*N *2712:14 *C 7.128 39.062
*N *2712:15 *C 7.142 39.048
*N *2712:16 *C 7.723 39.048
*N *2712:17 *C 7.736 39.035
*N *2712:18 *C 7.736 34.502
*N *2712:19 *C 7.750 34.488
*N *2712:20 *C 9.395 34.488
*N *2712:21 *C 9.408 34.476

*CAP
0 *229:Q 0.001
1 *78:A3 0.001
2 *153:A1 0.01421573
3 *160:A1 0.001
4 *2712:4 0.01285603
5 *2712:5 0.01006535
6 *2712:6 0.01214033
7 *2712:7 0.024255
8 *2712:8 0.02395818
9 *2712:9 0.04996886
10 *2712:10 0.04996886
11 *2712:11 0.03858612
12 *2712:12 0.03527126
13 *2712:13 0.1160699
14 *2712:14 0.1017096
15 *2712:15 0.0311857
16 *2712:16 0.0311857
17 *2712:17 0.3130809
18 *2712:18 0.3130809
19 *2712:19 0.05761861
20 *2712:20 0.05761861
21 *2712:21 0.006678912

*RES
0 *229:Q *2712:21 1
1 *2712:14 *78:A3 1
2 *2712:14 *2712:13 2.690178
3 *2712:15 *2712:14 0.5
4 *2712:17 *2712:16 0.5
5 *2712:16 *2712:15 1.0375
6 *2712:18 *2712:17 8.094644
7 *2712:19 *2712:18 0.5
8 *2712:21 *2712:20 0.5
9 *2712:21 *2712:4 0.2825
10 *2712:20 *2712:19 2.9375
11 *2712:5 *160:A1 1
12 *2712:11 *2712:10 0.5
13 *2712:11 *2712:5 0.2758334
14 *2712:10 *2712:9 2.123214
15 *2712:8 *2712:7 0.4946429
16 *2712:9 *2712:8 0.5
17 *2712:6 *153:A1 0.2283333
18 *2712:7 *2712:6 1
19 *2712:12 *2712:11 0.4964286
20 *2712:13 *2712:12 0.2714286

*END

*D_NET *2716 0.7039222 //LENGTH 8.406 LUMPCC 0 DR

*CONN
*I *227:Q O *L 0 *C 12.448 22.328
*I *297:A4 I *L 0.514778 *C 6.824 22.480
*I *145:A2 I *L 0.466516 *C 6.520 20.808
*N *2716:3 *C 12.448 22.146
*N *2716:4 *C 6.520 20.676
*N *2716:5 *C 6.520 20.796
*N *2716:6 *C 6.534 20.808
*N *2716:7 *C 6.811 20.808
*N *2716:8 *C 6.824 20.822
*N *2716:9 *C 6.824 22.468
*N *2716:10 *C 6.824 22.302
*N *2716:11 *C 6.838 22.328
*N *2716:12 *C 12.434 22.328
*N *2716:13 *C 12.448 22.316

*CAP
0 *227:Q 0.001
1 *297:A4 0.001
2 *145:A2 0.001
3 *2716:3 0.01487659
4 *2716:4 0.01241589
5 *2716:5 0.00443488
6 *2716:6 0.01206919
7 *2716:7 0.01404604
8 *2716:8 0.0916529
9 *2716:9 0.006617695
10 *2716:10 0.1020755
11 *2716:11 0.2170171
12 *2716:12 0.2170171
13 *2716:13 0.00869947

*RES
0 *227:Q *2716:13 1
1 *2716:9 *297:A4 1
2 *2716:10 *2716:9 0.2758334
3 *2716:10 *2716:8 2.64375
4 *2716:11 *2716:10 0.5
5 *2716:13 *2716:12 0.5
6 *2716:13 *2716:3 0.2825
7 *2716:12 *2716:11 9.994644
8 *2716:8 *2716:7 0.5
9 *2716:7 *2716:6 0.4946429
10 *2716:5 *145:A2 1
11 *2716:5 *2716:4 0.1991667
12 *2716:6 *2716:5 0.5

*END

*D_NET *2720 1.014183 //LENGTH 11.153 LUMPCC 0 DR

*CONN
*I *225:Q O *L 0 *C 16.552 8.952
*I *203:A3 I *L 0.519105 *C 11.840 9.104
*I *209:A4 I *L 0.514778 *C 8.344 7.584
*I *139:A3 I *L 0.584801 *C 10.320 9.104
*N *2720:4 *C 10.320 9.091
*N *2720:5 *C 8.344 7.584
*N *2720:6 *C 8.344 7.724
*N *2720:7 *C 8.357 7.736
*N *2720:8 *C 10.306 7.736
*N *2720:9 *C 10.320 7.750
*N *2720:10 *C 10.320 8.648
*N *2720:11 *C 10.334 8.648
*N *2720:12 *C 11.840 9.091
*N *2720:13 *C 11.840 8.662
*N *2720:14 *C 11.840 8.648
*N *2720:15 *C 16.538 8.648
*N *2720:16 *C 16.552 8.662
*N *2720:17 *C 16.552 8.939

*CAP
0 *225:Q 0.001
1 *203:A3 0.001
2 *209:A4 0.001
3 *139:A3 0.001
4 *2720:4 0.02535763
5 *2720:5 0.01086727
6 *2720:6 0.01229995
7 *2720:7 0.08951345
8 *2720:8 0.08951345
9 *2720:9 0.04747276
10 *2720:10 0.07663528
11 *2720:11 0.07005084
12 *2720:12 0.03667172
13 *2720:13 0.0381044
14 *2720:14 0.2788822
15 *2720:15 0.2064592
16 *2720:16 0.01489363
17 *2720:17 0.01346095

*RES
0 *225:Q *2720:17 1
1 *2720:16 *2720:15 0.5
2 *2720:15 *2720:14 8.390179
3 *2720:17 *2720:16 0.4946429
4 *2720:13 *2720:12 0.7660714
5 *2720:14 *2720:13 0.5
6 *2720:14 *2720:11 2.690179
7 *2720:12 *203:A3 1
8 *2720:4 *139:A3 1
9 *2720:10 *2720:9 1.604464
10 *2720:10 *2720:4 0.7901786
11 *2720:11 *2720:10 0.5
12 *2720:9 *2720:8 0.5
13 *2720:8 *2720:7 3.480358
14 *2720:6 *2720:5 0.2325
15 *2720:7 *2720:6 0.5
16 *2720:5 *209:A4 1

*END

*D_NET *2725 0.7943018 //LENGTH 8.625 LUMPCC 0 DR

*CONN
*I *327:Y O *L 0 *C 26.736 42.240
*I *340:D I *L 0.543569 *C 23.392 37.376
*N *2725:2 *C 23.392 37.390
*N *2725:3 *C 23.392 37.819
*N *2725:4 *C 23.405 37.832
*N *2725:5 *C 26.571 37.832
*N *2725:6 *C 26.584 37.846
*N *2725:7 *C 26.584 41.784
*N *2725:8 *C 26.736 41.784
*N *2725:9 *C 26.736 42.239

*CAP
0 *327:Y 0.001
1 *340:D 0.001
2 *2725:2 0.02141969
3 *2725:3 0.02285237
4 *2725:4 0.1489291
5 *2725:5 0.1489291
6 *2725:6 0.1891702
7 *2725:7 0.2004315
8 *2725:8 0.03663187
9 *2725:9 0.02393791

*RES
0 *327:Y *2725:9 1
1 *2725:2 *340:D 1
2 *2725:3 *2725:2 0.7660714
3 *2725:4 *2725:3 0.5
4 *2725:6 *2725:5 0.5
5 *2725:5 *2725:4 5.651786
6 *2725:9 *2725:8 0.8125
7 *2725:7 *2725:6 7.033036
8 *2725:8 *2725:7 0.2714286

*END

*D_NET *2729 1.041701 //LENGTH 9.049 LUMPCC 0 DR

*CONN
*I *508:Y O *L 0 *C 38.744 11.536
*I *248:D I *L 0.543562 *C 34.640 16.096
*N *2729:2 *C 34.640 16.082
*N *2729:3 *C 34.640 13.830
*N *2729:4 *C 34.654 13.816
*N *2729:5 *C 38.427 13.816
*N *2729:6 *C 38.440 13.803
*N *2729:7 *C 38.440 11.550
*N *2729:8 *C 38.455 11.536

*CAP
0 *508:Y 0.02620213
1 *248:D 0.001
2 *2729:2 0.142825
3 *2729:3 0.1442577
4 *2729:4 0.1682539
5 *2729:5 0.1682539
6 *2729:6 0.1832425
7 *2729:7 0.1835393
8 *2729:8 0.02412674

*RES
0 *508:Y *2729:8 0.578
1 *2729:2 *248:D 1
2 *2729:3 *2729:2 4.023214
3 *2729:4 *2729:3 0.5
4 *2729:6 *2729:5 0.5
5 *2729:5 *2729:4 6.7375
6 *2729:8 *2729:7 1
7 *2729:7 *2729:6 4.023214

*END

*D_NET *2732 0.4152397 //LENGTH 4.287 LUMPCC 0 DR

*CONN
*I *202:Y O *L 0 *C 44.824 14.576
*I *245:D I *L 0.543562 *C 41.784 13.968
*N *2732:2 *C 41.784 13.956
*N *2732:3 *C 41.784 13.816
*N *2732:4 *C 41.797 13.816
*N *2732:5 *C 44.811 13.816
*N *2732:6 *C 44.824 13.830
*N *2732:7 *C 44.824 14.562

*CAP
0 *202:Y 0.001
1 *245:D 0.001
2 *2732:2 0.01586636
3 *2732:3 0.01729904
4 *2732:4 0.1348105
5 *2732:5 0.1348105
6 *2732:6 0.05594301
7 *2732:7 0.05451033

*RES
0 *202:Y *2732:7 1
1 *2732:2 *245:D 1
2 *2732:3 *2732:2 0.2325
3 *2732:4 *2732:3 0.5
4 *2732:6 *2732:5 0.5
5 *2732:5 *2732:4 5.380357
6 *2732:7 *2732:6 1.308929

*END

*D_NET *2736 0.4887446 //LENGTH 5.321 LUMPCC 0 DR

*CONN
*I *277:Y O *L 0 *C 30.232 34.640
*I *237:D I *L 0.543562 *C 32.512 37.376
*N *2736:2 *C 32.512 37.363
*N *2736:3 *C 32.512 36.630
*N *2736:4 *C 32.498 36.616
*N *2736:5 *C 30.245 36.616
*N *2736:6 *C 30.232 36.602
*N *2736:7 *C 30.232 34.641

*CAP
0 *277:Y 0.001
1 *237:D 0.001
2 *2736:2 0.03876835
3 *2736:3 0.04020103
4 *2736:4 0.08771815
5 *2736:5 0.08771815
6 *2736:6 0.1168858
7 *2736:7 0.1154531

*RES
0 *277:Y *2736:7 1
1 *2736:2 *237:D 1
2 *2736:3 *2736:2 1.308929
3 *2736:4 *2736:3 0.5
4 *2736:6 *2736:5 0.5
5 *2736:5 *2736:4 4.023215
6 *2736:7 *2736:6 3.502679

*END

*D_NET *2740 0.2405855 //LENGTH 2.159 LUMPCC 0 DR

*CONN
*I *254:Y O *L 0 *C 44.368 16.096
*I *256:A2 I *L 0.578798 *C 43.912 17.464
*N *2740:2 *C 43.912 17.451
*N *2740:3 *C 43.912 16.262
*N *2740:4 *C 43.925 16.248
*N *2740:5 *C 44.355 16.248
*N *2740:6 *C 44.368 16.236
*N *2740:7 *C 44.368 16.096

*CAP
0 *254:Y 0.001
1 *256:A2 0.001
2 *2740:2 0.08793772
3 *2740:3 0.0893704
4 *2740:4 0.02115665
5 *2740:5 0.02115665
6 *2740:6 0.01019837
7 *2740:7 0.008765687

*RES
0 *254:Y *2740:7 1
1 *2740:2 *256:A2 1
2 *2740:3 *2740:2 2.123214
3 *2740:4 *2740:3 0.5
4 *2740:6 *2740:5 0.5
5 *2740:5 *2740:4 0.7660714
6 *2740:7 *2740:6 0.2325

*END

*D_NET *2744 0.1659008 //LENGTH 1.717 LUMPCC 0 DR

*CONN
*I *267:Y O *L 0 *C 44.520 19.440
*I *268:A2 I *L 0.466516 *C 44.672 20.808
*N *2744:2 *C 44.672 20.807
*N *2744:3 *C 44.672 19.592
*N *2744:4 *C 44.520 19.592
*N *2744:5 *C 44.520 19.454

*CAP
0 *267:Y 0.001
1 *268:A2 0.001
2 *2744:2 0.06105937
3 *2744:3 0.07244747
4 *2744:4 0.02097751
5 *2744:5 0.009416457

*RES
0 *267:Y *2744:5 1
1 *2744:2 *268:A2 1
2 *2744:5 *2744:4 0.2473214
3 *2744:4 *2744:3 0.2714286
4 *2744:3 *2744:2 2.169643

*END

*D_NET *2747 0.5754481 //LENGTH 6.205 LUMPCC 0 DR

*CONN
*I *275:Y O *L 0 *C 34.184 34.184
*I *276:A I *L 0.582888 *C 31.600 34.184
*I *279:A2 I *L 0.516516 *C 32.056 31.904
*N *2747:3 *C 32.056 31.918
*N *2747:4 *C 32.056 33.562
*N *2747:5 *C 32.043 33.576
*N *2747:6 *C 31.600 33.576
*N *2747:7 *C 31.600 34.171
*N *2747:8 *C 31.600 33.894
*N *2747:9 *C 31.600 33.880
*N *2747:10 *C 34.171 33.880
*N *2747:11 *C 34.184 33.894
*N *2747:12 *C 34.184 34.171

*CAP
0 *275:Y 0.001
1 *276:A 0.001
2 *279:A2 0.001
3 *2747:3 0.1001605
4 *2747:4 0.1015932
5 *2747:5 0.02213299
6 *2747:6 0.03638838
7 *2747:7 0.01570983
8 *2747:8 0.01714251
9 *2747:9 0.1256934
10 *2747:10 0.1138102
11 *2747:11 0.02062492
12 *2747:12 0.01919224

*RES
0 *275:Y *2747:12 1
1 *2747:11 *2747:10 0.5
2 *2747:10 *2747:9 4.590179
3 *2747:12 *2747:11 0.4946429
4 *2747:4 *2747:3 2.9375
5 *2747:5 *2747:4 0.5
6 *2747:3 *279:A2 1
7 *2747:8 *2747:7 0.4946429
8 *2747:9 *2747:8 0.5
9 *2747:9 *2747:6 0.5428572
10 *2747:7 *276:A 1
11 *2747:6 *2747:5 0.7901787

*END

*D_NET *2750 0.635115 //LENGTH 6.296 LUMPCC 0 DR

*CONN
*I *272:Y O *L 0 *C 31.296 32.208
*I *279:A4 I *L 0.513828 *C 32.208 32.512
*I *273:A I *L 0.582888 *C 32.512 30.840
*I *283:A5 I *L 0.542358 *C 34.488 32.816
*N *2750:4 *C 34.488 32.803
*N *2750:5 *C 34.488 32.373
*N *2750:6 *C 34.474 32.360
*N *2750:7 *C 32.512 30.854
*N *2750:8 *C 32.512 32.208
*N *2750:9 *C 32.664 32.208
*N *2750:10 *C 32.664 32.346
*N *2750:11 *C 32.664 32.360
*N *2750:12 *C 32.208 32.500
*N *2750:13 *C 32.208 32.360
*N *2750:14 *C 32.208 32.360
*N *2750:15 *C 31.309 32.360
*N *2750:16 *C 31.296 32.348
*N *2750:17 *C 31.296 32.208

*CAP
0 *272:Y 0.001
1 *279:A4 0.001
2 *273:A 0.001
3 *283:A5 0.001
4 *2750:4 0.024825
5 *2750:5 0.02625767
6 *2750:6 0.08233728
7 *2750:7 0.09050032
8 *2750:8 0.1038521
9 *2750:9 0.02669438
10 *2750:10 0.01477528
11 *2750:11 0.105477
12 *2750:12 0.01808677
13 *2750:13 0.01951945
14 *2750:14 0.0621329
15 *2750:15 0.03899322
16 *2750:16 0.009548177
17 *2750:17 0.008115499

*RES
0 *272:Y *2750:17 1
1 *2750:5 *2750:4 0.7660715
2 *2750:6 *2750:5 0.5
3 *2750:4 *283:A5 1
4 *2750:10 *2750:9 0.2473214
5 *2750:11 *2750:10 0.5
6 *2750:11 *2750:6 3.233036
7 *2750:7 *273:A 1
8 *2750:13 *2750:12 0.2325
9 *2750:14 *2750:13 0.5
10 *2750:14 *2750:11 0.8142858
11 *2750:12 *279:A4 1
12 *2750:16 *2750:15 0.5
13 *2750:15 *2750:14 1.604464
14 *2750:17 *2750:16 0.2325
15 *2750:8 *2750:7 2.41875
16 *2750:9 *2750:8 0.2714286

*END

*D_NET *2756 0.5877255 //LENGTH 4.975 LUMPCC 0 DR

*CONN
*I *269:Y O *L 0 *C 40.720 22.784
*I *287:A1 I *L 0.545966 *C 41.784 24.152
*I *270:A1 I *L 0.549073 *C 43.304 24.456
*N *2756:3 *C 43.304 24.455
*N *2756:4 *C 43.304 23.861
*N *2756:5 *C 43.291 23.848
*N *2756:6 *C 41.784 24.139
*N *2756:7 *C 41.784 23.861
*N *2756:8 *C 41.784 23.848
*N *2756:9 *C 40.733 23.848
*N *2756:10 *C 40.720 23.835
*N *2756:11 *C 40.720 22.797

*CAP
0 *269:Y 0.001
1 *287:A1 0.001
2 *270:A1 0.001
3 *2756:3 0.03400202
4 *2756:4 0.0354347
5 *2756:5 0.08544606
6 *2756:6 0.02159087
7 *2756:7 0.02302355
8 *2756:8 0.1669652
9 *2756:9 0.07914687
10 *2756:10 0.07027445
11 *2756:11 0.06884177

*RES
0 *269:Y *2756:11 1
1 *2756:4 *2756:3 1.059821
2 *2756:5 *2756:4 0.5
3 *2756:3 *270:A1 1
4 *2756:7 *2756:6 0.4946429
5 *2756:8 *2756:7 0.5
6 *2756:8 *2756:5 2.690179
7 *2756:6 *287:A1 1
8 *2756:10 *2756:9 0.5
9 *2756:9 *2756:8 1.875893
10 *2756:11 *2756:10 1.851786

*END

*D_NET *2760 0.2459586 //LENGTH 2.331 LUMPCC 0 DR

*CONN
*I *289:Y O *L 0 *C 39.534 20.960
*I *293:A2 I *L 0.55521 *C 40.568 20.960
*N *2760:2 *C 40.568 20.947
*N *2760:3 *C 40.568 20.518
*N *2760:4 *C 40.555 20.504
*N *2760:5 *C 39.974 20.504
*N *2760:6 *C 39.960 20.518
*N *2760:7 *C 39.960 20.947
*N *2760:8 *C 39.945 20.960

*CAP
0 *289:Y 0.03479999
1 *293:A2 0.001
2 *2760:2 0.0275756
3 *2760:3 0.02900828
4 *2760:4 0.02732382
5 *2760:5 0.02732382
6 *2760:6 0.03295285
7 *2760:7 0.03324967
8 *2760:8 0.03272459

*RES
0 *289:Y *2760:8 0.8220001
1 *2760:2 *293:A2 1
2 *2760:3 *2760:2 0.7660715
3 *2760:4 *2760:3 0.5
4 *2760:6 *2760:5 0.5
5 *2760:5 *2760:4 1.0375
6 *2760:8 *2760:7 1
7 *2760:7 *2760:6 0.7660715

*END

*D_NET *2765 0.6609066 //LENGTH 7.066 LUMPCC 0 DR

*CONN
*I *296:Y O *L 0 *C 45.888 17.464
*I *299:A2 I *L 0.466516 *C 46.800 14.120
*I *201:A I *L 0.582888 *C 47.408 12.600
*N *2765:3 *C 47.408 12.418
*N *2765:4 *C 47.408 12.588
*N *2765:5 *C 47.395 12.600
*N *2765:6 *C 46.814 12.600
*N *2765:7 *C 46.800 12.614
*N *2765:8 *C 46.800 14.120
*N *2765:9 *C 46.800 16.538
*N *2765:10 *C 46.787 16.552
*N *2765:11 *C 45.902 16.552
*N *2765:12 *C 45.888 16.566
*N *2765:13 *C 45.888 17.451

*CAP
0 *296:Y 0.001
1 *299:A2 0.001
2 *201:A 0.001
3 *2765:3 0.01136634
4 *2765:4 0.005189226
5 *2765:5 0.02210366
6 *2765:6 0.02210366
7 *2765:7 0.07480651
8 *2765:8 0.2017503
9 *2765:9 0.1258313
10 *2765:10 0.04251431
11 *2765:11 0.04251431
12 *2765:12 0.05557981
13 *2765:13 0.05414713

*RES
0 *296:Y *2765:13 1
1 *2765:8 *299:A2 1
2 *2765:8 *2765:7 2.690179
3 *2765:7 *2765:6 0.5
4 *2765:6 *2765:5 1.0375
5 *2765:4 *201:A 1
6 *2765:4 *2765:3 0.2825
7 *2765:5 *2765:4 0.5
8 *2765:9 *2765:8 4.31875
9 *2765:10 *2765:9 0.5
10 *2765:12 *2765:11 0.5
11 *2765:11 *2765:10 1.580357
12 *2765:13 *2765:12 1.580357

*END

*D_NET *2767 0.349989 //LENGTH 3.287 LUMPCC 0 DR

*CONN
*I *299:Y O *L 0 *C 47.074 14.272
*I *300:A6 I *L 0.639573 *C 46.192 12.144
*N *2767:2 *C 46.192 12.158
*N *2767:3 *C 46.192 12.600
*N *2767:4 *C 46.344 12.600
*N *2767:5 *C 46.344 14.259
*N *2767:6 *C 46.359 14.272

*CAP
0 *299:Y 0.04871394
1 *300:A6 0.001
2 *2767:2 0.02316168
3 *2767:3 0.0353456
4 *2767:4 0.1027918
5 *2767:5 0.09233739
6 *2767:6 0.04663854

*RES
0 *299:Y *2767:6 1.43
1 *2767:2 *300:A6 1
2 *2767:6 *2767:5 1
3 *2767:5 *2767:4 2.961607
4 *2767:3 *2767:2 0.7901786
5 *2767:4 *2767:3 0.2714286

*END

*D_NET *2770 1.018625 //LENGTH 11.308 LUMPCC 0 DR

*CONN
*I *303:Y O *L 0 *C 47.408 9.864
*I *321:A5 I *L 0.583269 *C 41.632 10.776
*I *508:A1 I *L 0.520769 *C 39.960 10.928
*N *2770:3 *C 39.960 10.915
*N *2770:4 *C 39.960 9.878
*N *2770:5 *C 39.974 9.864
*N *2770:6 *C 41.632 10.775
*N *2770:7 *C 41.632 9.878
*N *2770:8 *C 41.632 9.865
*N *2770:9 *C 41.632 10.168
*N *2770:10 *C 43.456 10.168
*N *2770:11 *C 43.456 10.472
*N *2770:12 *C 47.395 10.472
*N *2770:13 *C 47.408 10.459
*N *2770:14 *C 47.408 9.878

*CAP
0 *303:Y 0.001
1 *321:A5 0.001
2 *508:A1 0.001
3 *2770:3 0.05833707
4 *2770:4 0.05976975
5 *2770:5 0.08544099
6 *2770:6 0.0673029
7 *2770:7 0.06873558
8 *2770:8 0.09825291
9 *2770:9 0.09702046
10 *2770:10 0.09680408
11 *2770:11 0.175211
12 *2770:12 0.1602433
13 *2770:13 0.02453134
14 *2770:14 0.02397551

*RES
0 *303:Y *2770:14 1
1 *2770:13 *2770:12 0.5
2 *2770:12 *2770:11 7.033037
3 *2770:14 *2770:13 1.0375
4 *2770:7 *2770:6 1.602679
5 *2770:8 *2770:7 0.5
6 *2770:8 *2770:5 2.961607
7 *2770:6 *321:A5 1
8 *2770:4 *2770:3 1.851786
9 *2770:5 *2770:4 0.5
10 *2770:3 *508:A1 1
11 *2770:9 *2770:8 0.5410715
12 *2770:10 *2770:9 3.257143
13 *2770:11 *2770:10 0.5428572

*END

*D_NET *2774 1.261947 //LENGTH 13.018 LUMPCC 0 DR

*CONN
*I *258:Y O *L 0 *C 32.208 34.184
*I *275:A4 I *L 0.565045 *C 34.792 34.184
*I *282:A1 I *L 0.549073 *C 35.552 34.488
*I *315:A2 I *L 0.577157 *C 35.400 42.544
*I *259:A I *L 0.582888 *C 35.552 40.872
*N *2774:5 *C 35.552 40.858
*N *2774:6 *C 35.400 42.531
*N *2774:7 *C 35.400 40.568
*N *2774:8 *C 35.552 40.568
*N *2774:9 *C 35.552 34.502
*N *2774:10 *C 35.538 34.488
*N *2774:11 *C 34.792 34.198
*N *2774:12 *C 34.792 34.474
*N *2774:13 *C 34.792 34.488
*N *2774:14 *C 32.221 34.488
*N *2774:15 *C 32.208 34.474
*N *2774:16 *C 32.208 34.198

*CAP
0 *258:Y 0.001
1 *275:A4 0.001
2 *282:A1 0.001
3 *315:A2 0.001
4 *259:A 0.001
5 *2774:5 0.01653864
6 *2774:6 0.1201206
7 *2774:7 0.1323312
8 *2774:8 0.3177006
9 *2774:9 0.2807974
10 *2774:10 0.0329202
11 *2774:11 0.02181691
12 *2774:12 0.02324959
13 *2774:13 0.1518369
14 *2774:14 0.1145676
15 *2774:15 0.02324982
16 *2774:16 0.02181714

*RES
0 *258:Y *2774:16 1
1 *2774:5 *259:A 1
2 *2774:9 *282:A1 1
3 *2774:9 *2774:8 10.83304
4 *2774:6 *315:A2 1
5 *2774:10 *2774:9 0.5
6 *2774:12 *2774:11 0.4946429
7 *2774:13 *2774:12 0.5
8 *2774:13 *2774:10 1.333036
9 *2774:11 *275:A4 1
10 *2774:15 *2774:14 0.5
11 *2774:14 *2774:13 4.590179
12 *2774:16 *2774:15 0.4946429
13 *2774:7 *2774:6 3.504464
14 *2774:8 *2774:7 0.2714286
15 *2774:8 *2774:5 0.5187501

*END

*D_NET *2780 0.5523736 //LENGTH 5.315 LUMPCC 0 DR

*CONN
*I *313:Y O *L 0 *C 30.992 44.672
*I *210:A6 I *L 0.558565 *C 30.232 43.000
*I *316:A2 I *L 0.501039 *C 29.624 44.520
*I *322:A5 I *L 0.542358 *C 29.776 46.192
*N *2780:4 *C 29.776 46.178
*N *2780:5 *C 29.776 44.520
*N *2780:6 *C 29.625 44.520
*N *2780:7 *C 29.638 44.520
*N *2780:8 *C 30.232 43.001
*N *2780:9 *C 30.232 44.507
*N *2780:10 *C 30.232 44.520
*N *2780:11 *C 30.979 44.520
*N *2780:12 *C 30.992 44.520
*N *2780:13 *C 30.992 44.660

*CAP
0 *313:Y 0.001
1 *210:A6 0.001
2 *316:A2 0.001
3 *322:A5 0.001
4 *2780:4 0.1042629
5 *2780:5 0.1172932
6 *2780:6 0.003048228
7 *2780:7 0.02745785
8 *2780:8 0.08787831
9 *2780:9 0.08931099
10 *2780:10 0.06081054
11 *2780:11 0.03098048
12 *2780:12 0.01438191
13 *2780:13 0.01294923

*RES
0 *313:Y *2780:13 1
1 *2780:12 *2780:11 0.5
2 *2780:11 *2780:10 1.333036
3 *2780:13 *2780:12 0.2325
4 *2780:9 *2780:8 2.688393
5 *2780:10 *2780:9 0.5
6 *2780:10 *2780:7 1.061607
7 *2780:8 *210:A6 1
8 *2780:4 *322:A5 1
9 *2780:6 *316:A2 1
10 *2780:6 *2780:5 0.2696429
11 *2780:7 *2780:6 0.5
12 *2780:5 *2780:4 2.961607

*END

*D_NET *2783 0.494237 //LENGTH 5.466 LUMPCC 0 DR

*CONN
*I *322:Y O *L 0 *C 30.384 46.344
*I *326:A3 I *L 0.474994 *C 27.678 45.888
*I *323:A I *L 0.582888 *C 26.280 46.040
*N *2783:3 *C 26.280 45.858
*N *2783:4 *C 26.280 46.028
*N *2783:5 *C 26.294 46.040
*N *2783:6 *C 27.937 45.888
*N *2783:7 *C 27.952 45.888
*N *2783:8 *C 27.952 46.028
*N *2783:9 *C 27.952 46.040
*N *2783:10 *C 30.370 46.040
*N *2783:11 *C 30.384 46.053
*N *2783:12 *C 30.384 46.331

*CAP
0 *322:Y 0.001
1 *326:A3 0.02419518
2 *323:A 0.001
3 *2783:3 0.01355863
4 *2783:4 0.007381518
5 *2783:5 0.07087808
6 *2783:6 0.02211978
7 *2783:7 0.01438978
8 *2783:8 0.01409296
9 *2783:9 0.1825165
10 *2783:10 0.1092662
11 *2783:11 0.01763551
12 *2783:12 0.01620283

*RES
0 *322:Y *2783:12 1
1 *2783:11 *2783:10 0.5
2 *2783:10 *2783:9 4.31875
3 *2783:12 *2783:11 0.4946429
4 *2783:8 *2783:7 0.2325
5 *2783:9 *2783:8 0.5
6 *2783:9 *2783:5 2.961607
7 *2783:6 *326:A3 0.5180001
8 *2783:7 *2783:6 1
9 *2783:4 *323:A 1
10 *2783:4 *2783:3 0.2825
11 *2783:5 *2783:4 0.5

*END

*D_NET *2786 1.005041 //LENGTH 11.364 LUMPCC 0 DR

*CONN
*I *260:Y O *L 0 *C 26.128 40.568
*I *327:A3 I *L 0.507548 *C 27.648 43.304
*I *261:A3 I *L 0.456834 *C 33.576 42.696
*N *2786:3 *C 33.576 42.710
*N *2786:4 *C 33.576 43.291
*N *2786:5 *C 33.562 43.304
*N *2786:6 *C 27.648 43.122
*N *2786:7 *C 27.648 43.291
*N *2786:8 *C 27.648 43.304
*N *2786:9 *C 26.142 43.304
*N *2786:10 *C 26.128 43.291
*N *2786:11 *C 26.128 40.582

*CAP
0 *260:Y 0.001
1 *327:A3 0.001
2 *261:A3 0.001
3 *2786:3 0.03407175
4 *2786:4 0.03550443
5 *2786:5 0.2561037
6 *2786:6 0.01405717
7 *2786:7 0.007880055
8 *2786:8 0.3301444
9 *2786:9 0.07166847
10 *2786:10 0.1270219
11 *2786:11 0.1255892

*RES
0 *260:Y *2786:11 1
1 *2786:4 *2786:3 1.0375
2 *2786:5 *2786:4 0.5
3 *2786:3 *261:A3 1
4 *2786:7 *327:A3 1
5 *2786:7 *2786:6 0.2825
6 *2786:8 *2786:7 0.5
7 *2786:8 *2786:5 10.56161
8 *2786:10 *2786:9 0.5
9 *2786:9 *2786:8 2.690179
10 *2786:11 *2786:10 4.837501

*END

*D_NET *2788 0.7870613 //LENGTH 8.775 LUMPCC 0 DR

*CONN
*I *290:Y O *L 0 *C 46.648 24.000
*I *291:A3 I *L 0.465144 *C 43.000 22.480
*I *328:A6 I *L 0.609639 *C 39.960 23.696
*N *2788:3 *C 39.960 23.695
*N *2788:4 *C 39.960 23.558
*N *2788:5 *C 39.974 23.544
*N *2788:6 *C 43.000 22.494
*N *2788:7 *C 43.000 23.530
*N *2788:8 *C 43.000 23.544
*N *2788:9 *C 46.635 23.544
*N *2788:10 *C 46.648 23.558
*N *2788:11 *C 46.648 23.986

*CAP
0 *290:Y 0.001
1 *291:A3 0.001
2 *328:A6 0.001
3 *2788:3 0.0114855
4 *2788:4 0.01291818
5 *2788:5 0.136558
6 *2788:6 0.07130916
7 *2788:7 0.07274184
8 *2788:8 0.284097
9 *2788:9 0.1451668
10 *2788:10 0.02560876
11 *2788:11 0.02417608

*RES
0 *290:Y *2788:11 1
1 *2788:10 *2788:9 0.5
2 *2788:9 *2788:8 6.490179
3 *2788:11 *2788:10 0.7660714
4 *2788:7 *2788:6 1.851786
5 *2788:8 *2788:7 0.5
6 *2788:8 *2788:5 5.404465
7 *2788:6 *291:A3 1
8 *2788:4 *2788:3 0.2455357
9 *2788:5 *2788:4 0.5
10 *2788:3 *328:A6 1

*END

*D_NET *2792 0.6704585 //LENGTH 6.626 LUMPCC 0 DR

*CONN
*I *291:Y O *L 0 *C 43.608 22.936
*I *292:A1 I *L 0.520769 *C 43.000 20.960
*I *292:A3 I *L 0.518192 *C 42.544 20.200
*I *331:A I *L 0.582888 *C 43.912 19.288
*N *2792:4 *C 43.912 19.302
*N *2792:5 *C 43.912 20.808
*N *2792:6 *C 42.544 20.213
*N *2792:7 *C 42.544 20.794
*N *2792:8 *C 42.558 20.808
*N *2792:9 *C 43.000 20.948
*N *2792:10 *C 43.000 20.808
*N *2792:11 *C 43.000 20.808
*N *2792:12 *C 43.747 20.808
*N *2792:13 *C 43.760 20.808
*N *2792:14 *C 43.760 22.024
*N *2792:15 *C 43.608 22.024
*N *2792:16 *C 43.608 22.922

*CAP
0 *291:Y 0.001
1 *292:A1 0.001
2 *292:A3 0.001
3 *331:A 0.001
4 *2792:4 0.0650313
5 *2792:5 0.07776658
6 *2792:6 0.05320199
7 *2792:7 0.05463467
8 *2792:8 0.02652349
9 *2792:9 0.009492475
10 *2792:10 0.01092515
11 *2792:11 0.07223315
12 *2792:12 0.04333745
13 *2792:13 0.07207196
14 *2792:14 0.07436126
15 *2792:15 0.05976572
16 *2792:16 0.04711336

*RES
0 *291:Y *2792:16 1
1 *2792:4 *331:A 1
2 *2792:16 *2792:15 1.604464
3 *2792:13 *2792:12 0.5
4 *2792:13 *2792:5 0.2714286
5 *2792:12 *2792:11 1.333036
6 *2792:10 *2792:9 0.2325
7 *2792:11 *2792:10 0.5
8 *2792:11 *2792:8 0.7901786
9 *2792:9 *292:A1 1
10 *2792:7 *2792:6 1.0375
11 *2792:8 *2792:7 0.5
12 *2792:6 *292:A3 1
13 *2792:15 *2792:14 0.2714286
14 *2792:14 *2792:13 2.171429
15 *2792:5 *2792:4 2.690179

*END

*D_NET *2798 1.752647 //LENGTH 18.303 LUMPCC 0 DR

*CONN
*I *246:QN O *L 0 *C 38.447 16.872
*I *302:A2 I *L 0.538095 *C 46.252 16.096
*I *253:A4 I *L 0.565045 *C 44.064 14.120
*I *300:A5 I *L 0.551519 *C 46.040 12.752
*N *2798:4 *C 46.040 12.766
*N *2798:5 *C 46.040 13.208
*N *2798:6 *C 45.889 13.208
*N *2798:7 *C 45.875 13.208
*N *2798:8 *C 44.064 14.107
*N *2798:9 *C 44.064 13.222
*N *2798:10 *C 44.078 13.208
*N *2798:11 *C 45.432 13.208
*N *2798:12 *C 45.432 13.222
*N *2798:13 *C 46.055 16.096
*N *2798:14 *C 46.040 16.082
*N *2798:15 *C 46.040 15.640
*N *2798:16 *C 45.889 15.640
*N *2798:17 *C 45.875 15.640
*N *2798:18 *C 45.446 15.640
*N *2798:19 *C 45.432 15.640
*N *2798:20 *C 45.432 17.755
*N *2798:21 *C 45.419 17.768
*N *2798:22 *C 38.744 17.768
*N *2798:23 *C 38.744 17.160
*N *2798:24 *C 38.454 17.160
*N *2798:25 *C 38.440 17.146
*N *2798:26 *C 38.440 16.870
*N *2798:27 *C 38.440 16.856

*CAP
0 *246:QN 0.01038934
1 *302:A2 0.02129857
2 *253:A4 0.001
3 *300:A5 0.001
4 *2798:4 0.02945638
5 *2798:5 0.04265725
6 *2798:6 0.007023755
7 *2798:7 0.02330533
8 *2798:8 0.05935498
9 *2798:9 0.06078766
10 *2798:10 0.06976928
11 *2798:11 0.09544737
12 *2798:12 0.1052445
13 *2798:13 0.01922318
14 *2798:14 0.03299838
15 *2798:15 0.04473282
16 *2798:16 0.00728682
17 *2798:17 0.02376985
18 *2798:18 0.0237704
19 *2798:19 0.198863
20 *2798:20 0.09124684
21 *2798:21 0.3231784
22 *2798:22 0.3519718
23 *2798:23 0.04186269
24 *2798:24 0.01306876
25 *2798:25 0.02266419
26 *2798:26 0.02296101
27 *2798:27 0.00831394

*RES
0 *246:QN *2798:27 0.09166668
1 *2798:6 *2798:5 0.2696429
2 *2798:7 *2798:6 0.5
3 *2798:4 *300:A5 1
4 *2798:18 *2798:17 0.7660714
5 *2798:19 *2798:18 0.5
6 *2798:19 *2798:12 4.31875
7 *2798:16 *2798:15 0.2696429
8 *2798:17 *2798:16 0.5
9 *2798:13 *302:A2 0.3940001
10 *2798:14 *2798:13 1
11 *2798:11 *2798:10 2.41875
12 *2798:11 *2798:7 0.7901787
13 *2798:12 *2798:11 0.5
14 *2798:9 *2798:8 1.580357
15 *2798:10 *2798:9 0.5
16 *2798:8 *253:A4 1
17 *2798:21 *2798:20 0.5
18 *2798:20 *2798:19 3.775893
19 *2798:25 *2798:24 0.5
20 *2798:24 *2798:23 0.5187501
21 *2798:27 *2798:26 1
22 *2798:26 *2798:25 0.4946429
23 *2798:5 *2798:4 0.7901787
24 *2798:15 *2798:14 0.7901787
25 *2798:23 *2798:22 1.085714
26 *2798:22 *2798:21 11.91875

*END

*D_NET *2802 1.315708 //LENGTH 12.084 LUMPCC 0 DR

*CONN
*I *241:QN O *L 0 *C 28.408 38.896
*I *261:A1 I *L 0.545966 *C 33.272 42.696
*I *210:A1 I *L 0.496377 *C 31.144 42.544
*I *210:A3 I *L 0.498109 *C 30.688 43.304
*N *2802:4 *C 30.688 43.291
*N *2802:5 *C 31.144 42.558
*N *2802:6 *C 31.144 42.999
*N *2802:7 *C 31.143 43.000
*N *2802:8 *C 30.702 43.000
*N *2802:9 *C 30.688 43.014
*N *2802:10 *C 30.536 43.000
*N *2802:11 *C 33.272 42.683
*N *2802:12 *C 33.272 41.797
*N *2802:13 *C 33.259 41.784
*N *2802:14 *C 30.550 41.784
*N *2802:15 *C 30.536 41.784
*N *2802:16 *C 30.536 39.669
*N *2802:17 *C 30.523 39.656
*N *2802:18 *C 28.422 39.656
*N *2802:19 *C 28.408 39.643
*N *2802:20 *C 28.408 38.897

*CAP
0 *241:QN 0.001
1 *261:A1 0.001
2 *210:A1 0.001
3 *210:A3 0.001
4 *2802:4 0.02520887
5 *2802:5 0.02959167
6 *2802:6 0.03102435
7 *2802:7 0.0216929
8 *2802:8 0.0216929
9 *2802:9 0.03575384
10 *2802:10 0.103294
11 *2802:11 0.05919571
12 *2802:12 0.06062839
13 *2802:13 0.148755
14 *2802:14 0.148755
15 *2802:15 0.2237034
16 *2802:16 0.1295218
17 *2802:17 0.09260833
18 *2802:18 0.09260833
19 *2802:19 0.04455319
20 *2802:20 0.04312051

*RES
0 *241:QN *2802:20 1
1 *2802:4 *210:A3 1
2 *2802:9 *2802:8 0.5
3 *2802:9 *2802:4 0.4946429
4 *2802:8 *2802:7 0.7883929
5 *2802:6 *2802:5 0.7883929
6 *2802:7 *2802:6 0.5
7 *2802:5 *210:A1 1
8 *2802:15 *2802:14 0.5
9 *2802:15 *2802:10 2.171429
10 *2802:14 *2802:13 4.837501
11 *2802:12 *2802:11 1.580357
12 *2802:13 *2802:12 0.5
13 *2802:11 *261:A1 1
14 *2802:16 *2802:15 3.775893
15 *2802:17 *2802:16 0.5
16 *2802:19 *2802:18 0.5
17 *2802:18 *2802:17 3.751786
18 *2802:20 *2802:19 1.33125
19 *2802:10 *2802:9 0.2714286

*END

*D_NET *2806 1.084499 //LENGTH 13.791 LUMPCC 0 DR

*CONN
*I *245:QN O *L 0 *C 37.984 14.576
*I *296:A3 I *L 0.584801 *C 45.432 17.616
*I *302:A4 I *L 0.554348 *C 46.192 15.640
*N *2806:3 *C 38.136 14.546
*N *2806:4 *C 46.192 15.654
*N *2806:5 *C 46.192 16.856
*N *2806:6 *C 46.041 16.856
*N *2806:7 *C 46.027 16.856
*N *2806:8 *C 45.432 17.602
*N *2806:9 *C 45.432 16.870
*N *2806:10 *C 45.446 16.856
*N *2806:11 *C 45.736 16.856
*N *2806:12 *C 45.736 16.843
*N *2806:13 *C 45.736 14.742
*N *2806:14 *C 45.723 14.728
*N *2806:15 *C 38.150 14.728
*N *2806:16 *C 38.136 14.716
*N *2806:17 *C 38.123 14.728
*N *2806:18 *C 37.984 14.728
*N *2806:19 *C 37.984 14.715
*N *2806:20 *C 37.984 14.577

*CAP
0 *245:QN 0.001
1 *296:A3 0.001
2 *302:A4 0.001
3 *2806:3 0.01167627
4 *2806:4 0.08918874
5 *2806:5 0.1020017
6 *2806:6 0.006635846
7 *2806:7 0.01426812
8 *2806:8 0.04488679
9 *2806:9 0.04631947
10 *2806:10 0.01426812
11 *2806:11 0.030909
12 *2806:12 0.09713482
13 *2806:13 0.09713534
14 *2806:14 0.2402278
15 *2806:15 0.2402278
16 *2806:16 0.006933448
17 *2806:17 0.0107416
18 *2806:18 0.01074106
19 *2806:19 0.009818126
20 *2806:20 0.008385448

*RES
0 *245:QN *2806:20 1
1 *2806:6 *2806:5 0.2696429
2 *2806:7 *2806:6 0.5
3 *2806:4 *302:A4 1
4 *2806:9 *2806:8 1.308929
5 *2806:10 *2806:9 0.5
6 *2806:8 *296:A3 1
7 *2806:11 *2806:10 0.51875
8 *2806:11 *2806:7 0.51875
9 *2806:12 *2806:11 0.5
10 *2806:13 *2806:12 3.751786
11 *2806:14 *2806:13 0.5
12 *2806:16 *2806:15 0.5
13 *2806:16 *2806:3 0.2825
14 *2806:15 *2806:14 13.52322
15 *2806:17 *2806:16 0.5
16 *2806:19 *2806:18 0.5
17 *2806:18 *2806:17 0.2325
18 *2806:20 *2806:19 0.2455357
19 *2806:5 *2806:4 2.147322

*END

*D_NET *2812 0.5689622 //LENGTH 6.410 LUMPCC 0 DR

*CONN
*I *356:Y O *L 0 *C 27.344 11.232
*I *364:D I *L 0.543569 *C 26.432 6.064
*N *2812:2 *C 26.432 6.078
*N *2812:3 *C 26.432 7.419
*N *2812:4 *C 26.446 7.432
*N *2812:5 *C 27.331 7.432
*N *2812:6 *C 27.344 7.446
*N *2812:7 *C 27.344 11.219

*CAP
0 *356:Y 0.001
1 *364:D 0.001
2 *2812:2 0.05904128
3 *2812:3 0.06047396
4 *2812:4 0.0359792
5 *2812:5 0.0359792
6 *2812:6 0.1884606
7 *2812:7 0.1870279

*RES
0 *356:Y *2812:7 1
1 *2812:2 *364:D 1
2 *2812:3 *2812:2 2.394643
3 *2812:4 *2812:3 0.5
4 *2812:6 *2812:5 0.5
5 *2812:5 *2812:4 1.580357
6 *2812:7 *2812:6 6.7375

*END

*D_NET *2816 0.5335534 //LENGTH 6.263 LUMPCC 0 DR

*CONN
*I *352:Y O *L 0 *C 19.744 31.296
*I *368:D I *L 0.543569 *C 14.424 30.688
*N *2816:2 *C 14.424 30.702
*N *2816:3 *C 14.424 31.131
*N *2816:4 *C 14.438 31.144
*N *2816:5 *C 19.730 31.144
*N *2816:6 *C 19.744 31.144
*N *2816:7 *C 19.744 31.284

*CAP
0 *352:Y 0.001
1 *368:D 0.001
2 *2816:2 0.02140711
3 *2816:3 0.02283979
4 *2816:4 0.2294668
5 *2816:5 0.2294668
6 *2816:6 0.01490278
7 *2816:7 0.01347011

*RES
0 *352:Y *2816:7 1
1 *2816:2 *368:D 1
2 *2816:3 *2816:2 0.7660714
3 *2816:4 *2816:3 0.5
4 *2816:6 *2816:5 0.5
5 *2816:5 *2816:4 9.451787
6 *2816:7 *2816:6 0.2325

*END

*D_NET *2820 0.5914358 //LENGTH 5.655 LUMPCC 0 DR

*CONN
*I *348:Y O *L 0 *C 15.184 42.240
*I *360:D I *L 0.543569 *C 17.768 39.504
*N *2820:2 *C 17.768 39.504
*N *2820:3 *C 17.768 39.644
*N *2820:4 *C 17.755 39.656
*N *2820:5 *C 15.198 39.656
*N *2820:6 *C 15.184 39.669
*N *2820:7 *C 15.184 42.227

*CAP
0 *348:Y 0.001
1 *360:D 0.001
2 *2820:2 0.01095234
3 *2820:3 0.01238502
4 *2820:4 0.1231204
5 *2820:5 0.1231204
6 *2820:6 0.1606451
7 *2820:7 0.1592124

*RES
0 *348:Y *2820:7 1
1 *2820:2 *360:D 1
2 *2820:3 *2820:2 0.2325
3 *2820:4 *2820:3 0.5
4 *2820:6 *2820:5 0.5
5 *2820:5 *2820:4 4.566072
6 *2820:7 *2820:6 4.566072

*END

*D_NET *2824 0.6970786 //LENGTH 7.479 LUMPCC 0 DR

*CONN
*I *344:Y O *L 0 *C 34.336 5.456
*I *372:D I *L 0.543569 *C 32.360 10.624
*N *2824:2 *C 32.360 10.612
*N *2824:3 *C 32.360 10.472
*N *2824:4 *C 32.373 10.472
*N *2824:5 *C 34.323 10.472
*N *2824:6 *C 34.336 10.459
*N *2824:7 *C 34.336 5.470

*CAP
0 *344:Y 0.001
1 *372:D 0.001
2 *2824:2 0.009193604
3 *2824:3 0.01062628
4 *2824:4 0.09195941
5 *2824:5 0.09195941
6 *2824:6 0.2463863
7 *2824:7 0.2449536

*RES
0 *344:Y *2824:7 1
1 *2824:2 *372:D 1
2 *2824:3 *2824:2 0.2325
3 *2824:4 *2824:3 0.5
4 *2824:6 *2824:5 0.5
5 *2824:5 *2824:4 3.480357
6 *2824:7 *2824:6 8.908929

*END

*D_NET *2828 0.1797508 //LENGTH 1.630 LUMPCC 0 DR

*CONN
*I *392:Y O *L 0 *C 18.224 12.144
*I *405:D I *L 0.543569 *C 18.224 10.624
*N *2828:2 *C 18.224 10.638
*N *2828:3 *C 18.224 12.131

*CAP
0 *392:Y 0.001
1 *405:D 0.001
2 *2828:2 0.08887542
3 *2828:3 0.08887542

*RES
0 *392:Y *2828:3 1
1 *2828:2 *405:D 1
2 *2828:3 *2828:2 2.666071

*END

*D_NET *2830 0.6954084 //LENGTH 7.175 LUMPCC 0 DR

*CONN
*I *390:Y O *L 0 *C 24.152 14.576
*I *409:D I *L 0.543569 *C 18.224 13.968
*N *2830:2 *C 18.224 13.956
*N *2830:3 *C 18.224 13.816
*N *2830:4 *C 18.238 13.816
*N *2830:5 *C 24.139 13.816
*N *2830:6 *C 24.152 13.830
*N *2830:7 *C 24.152 14.562

*CAP
0 *390:Y 0.001
1 *409:D 0.001
2 *2830:2 0.01138336
3 *2830:3 0.01281604
4 *2830:4 0.2657944
5 *2830:5 0.2657944
6 *2830:6 0.06952639
7 *2830:7 0.06809371

*RES
0 *390:Y *2830:7 1
1 *2830:2 *409:D 1
2 *2830:3 *2830:2 0.2325
3 *2830:4 *2830:3 0.5
4 *2830:6 *2830:5 0.5
5 *2830:5 *2830:4 10.5375
6 *2830:7 *2830:6 1.308929

*END

*D_NET *2832 0.7162886 //LENGTH 7.935 LUMPCC 0 DR

*CONN
*I *388:Y O *L 0 *C 18.224 21.264
*I *404:D I *L 0.543569 *C 12.448 19.440
*N *2832:2 *C 12.448 19.440
*N *2832:3 *C 12.448 19.579
*N *2832:4 *C 12.462 19.592
*N *2832:5 *C 18.210 19.592
*N *2832:6 *C 18.224 19.605
*N *2832:7 *C 18.224 21.251

*CAP
0 *388:Y 0.001
1 *404:D 0.001
2 *2832:2 0.008423134
3 *2832:3 0.009855812
4 *2832:4 0.2216293
5 *2832:5 0.2216293
6 *2832:6 0.1270919
7 *2832:7 0.1256592

*RES
0 *388:Y *2832:7 1
1 *2832:2 *404:D 1
2 *2832:3 *2832:2 0.2325
3 *2832:4 *2832:3 0.5
4 *2832:6 *2832:5 0.5
5 *2832:5 *2832:4 10.26607
6 *2832:7 *2832:6 2.9375

*END

*D_NET *2833 0.8240951 //LENGTH 9.340 LUMPCC 0 DR

*CONN
*I *387:Y O *L 0 *C 17.756 24.608
*I *396:D I *L 0.543569 *C 12.752 20.656
*N *2833:2 *C 12.752 20.669
*N *2833:3 *C 12.752 23.227
*N *2833:4 *C 12.766 23.240
*N *2833:5 *C 17.602 23.240
*N *2833:6 *C 17.616 23.254
*N *2833:7 *C 17.616 24.595
*N *2833:8 *C 17.629 24.608

*CAP
0 *387:Y 0.01601845
1 *396:D 0.001
2 *2833:2 0.1172342
3 *2833:3 0.1186669
4 *2833:4 0.2062189
5 *2833:5 0.2062189
6 *2833:6 0.07224891
7 *2833:7 0.07254573
8 *2833:8 0.01394305

*RES
0 *387:Y *2833:8 0.2116667
1 *2833:2 *396:D 1
2 *2833:3 *2833:2 4.566072
3 *2833:4 *2833:3 0.5
4 *2833:6 *2833:5 0.5
5 *2833:5 *2833:4 8.6375
6 *2833:8 *2833:7 1
7 *2833:7 *2833:6 2.394643

*END

*D_NET *2836 0.6744175 //LENGTH 5.238 LUMPCC 0 DR

*CONN
*I *384:Y O *L 0 *C 18.376 22.176
*I *403:D I *L 0.543569 *C 18.528 17.312
*N *2836:2 *C 18.528 17.326
*N *2836:3 *C 18.528 18.680
*N *2836:4 *C 18.376 18.680
*N *2836:5 *C 18.376 22.163

*CAP
0 *384:Y 0.001
1 *403:D 0.001
2 *2836:2 0.09460393
3 *2836:3 0.1071758
4 *2836:4 0.2416048
5 *2836:5 0.2290329

*RES
0 *384:Y *2836:5 1
1 *2836:2 *403:D 1
2 *2836:5 *2836:4 6.21875
3 *2836:4 *2836:3 0.2714286
4 *2836:3 *2836:2 2.41875

*END

*D_NET *2837 0.806998 //LENGTH 8.234 LUMPCC 0 DR

*CONN
*I *383:Y O *L 0 *C 19.288 24.608
*I *395:D I *L 0.543569 *C 13.208 22.784
*N *2837:2 *C 13.208 22.797
*N *2837:3 *C 13.208 23.530
*N *2837:4 *C 13.222 23.544
*N *2837:5 *C 19.274 23.544
*N *2837:6 *C 19.288 23.558
*N *2837:7 *C 19.288 24.595

*CAP
0 *383:Y 0.001
1 *395:D 0.001
2 *2837:2 0.03315553
3 *2837:3 0.03458821
4 *2837:4 0.2838553
5 *2837:5 0.2838553
6 *2837:6 0.08548809
7 *2837:7 0.08405541

*RES
0 *383:Y *2837:7 1
1 *2837:2 *395:D 1
2 *2837:3 *2837:2 1.308929
3 *2837:4 *2837:3 0.5
4 *2837:6 *2837:5 0.5
5 *2837:5 *2837:4 10.80893
6 *2837:7 *2837:6 1.851786

*END

*D_NET *2839 0.5149118 //LENGTH 4.575 LUMPCC 0 DR

*CONN
*I *381:Y O *L 0 *C 22.293 12.600
*I *398:D I *L 0.543569 *C 24.152 12.752
*N *2839:2 *C 24.152 12.739
*N *2839:3 *C 24.152 11.702
*N *2839:4 *C 24.139 11.688
*N *2839:5 *C 22.190 11.688
*N *2839:6 *C 22.176 11.702
*N *2839:7 *C 22.176 12.600
*N *2839:8 *C 22.327 12.600
*N *2839:9 *C 22.313 12.600

*CAP
0 *381:Y 0.01049119
1 *398:D 0.001
2 *2839:2 0.08679251
3 *2839:3 0.08822519
4 *2839:4 0.0939367
5 *2839:5 0.0939367
6 *2839:6 0.05688088
7 *2839:7 0.0682807
8 *2839:8 0.0069522
9 *2839:9 0.008415789

*RES
0 *381:Y *2839:9 0.0888889
1 *2839:2 *398:D 1
2 *2839:3 *2839:2 1.851786
3 *2839:4 *2839:3 0.5
4 *2839:6 *2839:5 0.5
5 *2839:5 *2839:4 3.480358
6 *2839:9 *2839:8 1
7 *2839:8 *2839:7 0.2696429
8 *2839:7 *2839:6 1.604465

*END

*D_NET *2841 0.7744824 //LENGTH 6.739 LUMPCC 0 DR

*CONN
*I *379:Y O *L 0 *C 19.866 22.176
*I *394:D I *L 0.543569 *C 17.464 26.128
*N *2841:2 *C 17.464 26.114
*N *2841:3 *C 17.464 25.078
*N *2841:4 *C 17.477 25.064
*N *2841:5 *C 19.427 25.064
*N *2841:6 *C 19.440 25.050
*N *2841:7 *C 19.440 22.190
*N *2841:8 *C 19.455 22.176

*CAP
0 *379:Y 0.03574973
1 *394:D 0.001
2 *2841:2 0.05705259
3 *2841:3 0.05848527
4 *2841:4 0.08330847
5 *2841:5 0.08330847
6 *2841:6 0.2108033
7 *2841:7 0.2111002
8 *2841:8 0.03367433

*RES
0 *379:Y *2841:8 0.8220001
1 *2841:2 *394:D 1
2 *2841:3 *2841:2 1.851786
3 *2841:4 *2841:3 0.5
4 *2841:6 *2841:5 0.5
5 *2841:5 *2841:4 3.480357
6 *2841:8 *2841:7 1
7 *2841:7 *2841:6 5.108929

*END

*D_NET *2843 0.3333174 //LENGTH 3.370 LUMPCC 0 DR

*CONN
*I *376:Y O *L 0 *C 23.544 24.000
*I *251:A I *L 0.561607 *C 21.264 24.152
*N *2843:2 *C 21.264 24.166
*N *2843:3 *C 21.264 24.443
*N *2843:4 *C 21.277 24.456
*N *2843:5 *C 23.530 24.456
*N *2843:6 *C 23.544 24.443
*N *2843:7 *C 23.544 24.014

*CAP
0 *376:Y 0.001
1 *251:A 0.001
2 *2843:2 0.01902706
3 *2843:3 0.02045974
4 *2843:4 0.1134012
5 *2843:5 0.1134012
6 *2843:6 0.03323049
7 *2843:7 0.03179781

*RES
0 *376:Y *2843:7 1
1 *2843:2 *251:A 1
2 *2843:3 *2843:2 0.4946429
3 *2843:4 *2843:3 0.5
4 *2843:6 *2843:5 0.5
5 *2843:5 *2843:4 4.023215
6 *2843:7 *2843:6 0.7660715

*END

*D_NET *2846 0.5256144 //LENGTH 6.161 LUMPCC 0 DR

*CONN
*I *495:Y O *L 0 *C 42.482 43.000
*I *412:D I *L 0.543562 *C 36.920 42.848
*N *2846:2 *C 42.240 42.868
*N *2846:3 *C 36.920 42.848
*N *2846:4 *C 36.920 42.988
*N *2846:5 *C 36.934 43.000
*N *2846:6 *C 42.239 43.000
*N *2846:7 *C 42.240 42.988
*N *2846:8 *C 42.255 43.000

*CAP
0 *495:Y 0.02465045
1 *412:D 0.001
2 *2846:2 0.01435811
3 *2846:3 0.008277361
4 *2846:4 0.00971004
5 *2846:5 0.219296
6 *2846:6 0.219296
7 *2846:7 0.008180993
8 *2846:8 0.02084555

*RES
0 *495:Y *2846:8 0.454
1 *2846:3 *412:D 1
2 *2846:4 *2846:3 0.2325
3 *2846:5 *2846:4 0.5
4 *2846:7 *2846:6 0.5
5 *2846:7 *2846:2 0.1991667
6 *2846:6 *2846:5 9.474108
7 *2846:8 *2846:7 1

*END

*D_NET *2851 0.7699641 //LENGTH 8.516 LUMPCC 0 DR

*CONN
*I *170:Y O *L 0 *C 44.610 39.656
*I *498:D I *L 0.543569 *C 36.768 39.504
*N *2851:2 *C 43.456 39.474
*N *2851:3 *C 36.768 39.504
*N *2851:4 *C 36.768 39.644
*N *2851:5 *C 36.782 39.656
*N *2851:6 *C 43.443 39.656
*N *2851:7 *C 43.456 39.644
*N *2851:8 *C 43.471 39.656

*CAP
0 *170:Y 0.06301486
1 *498:D 0.001
2 *2851:2 0.02294368
3 *2851:3 0.00820846
4 *2851:4 0.009641139
5 *2851:5 0.2928602
6 *2851:6 0.2928602
7 *2851:7 0.01849606
8 *2851:8 0.06093946

*RES
0 *170:Y *2851:8 2.278
1 *2851:3 *498:D 1
2 *2851:4 *2851:3 0.2325
3 *2851:5 *2851:4 0.5
4 *2851:7 *2851:6 0.5
5 *2851:7 *2851:2 0.2825
6 *2851:6 *2851:5 11.89464
7 *2851:8 *2851:7 1

*END

*D_NET *2856 0.2167327 //LENGTH 2.101 LUMPCC 0 DR

*CONN
*I *465:Y O *L 0 *C 23.888 20.960
*I *466:A3 I *L 0.656896 *C 24.304 19.440
*N *2856:2 *C 24.304 19.454
*N *2856:3 *C 24.304 20.947
*N *2856:4 *C 24.289 20.960

*CAP
0 *465:Y 0.02936265
1 *466:A3 0.001
2 *2856:2 0.07867666
3 *2856:3 0.08040616
4 *2856:4 0.02728725

*RES
0 *465:Y *2856:4 0.802
1 *2856:2 *466:A3 1
2 *2856:4 *2856:3 1
3 *2856:3 *2856:2 2.666071

*END

*D_NET *2858 0.4364353 //LENGTH 4.629 LUMPCC 0 DR

*CONN
*I *467:Y O *L 0 *C 41.188 32.512
*I *468:A2 I *L 0.482724 *C 43.760 30.840
*N *2858:2 *C 43.760 30.854
*N *2858:3 *C 43.760 32.043
*N *2858:4 *C 43.747 32.056
*N *2858:5 *C 41.342 32.056
*N *2858:6 *C 41.328 32.070
*N *2858:7 *C 41.328 32.498
*N *2858:8 *C 41.316 32.512

*CAP
0 *467:Y 0.01430428
1 *468:A2 0.001
2 *2858:2 0.0641966
3 *2858:3 0.06562928
4 *2858:4 0.1099032
5 *2858:5 0.1099032
6 *2858:6 0.02948651
7 *2858:7 0.02978333
8 *2858:8 0.01222888

*RES
0 *467:Y *2858:8 0.2133333
1 *2858:2 *468:A2 1
2 *2858:3 *2858:2 2.123214
3 *2858:4 *2858:3 0.5
4 *2858:6 *2858:5 0.5
5 *2858:5 *2858:4 4.294643
6 *2858:8 *2858:7 1
7 *2858:7 *2858:6 0.7660714

*END

*D_NET *2860 0.1895861 //LENGTH 1.605 LUMPCC 0 DR

*CONN
*I *471:Y O *L 0 *C 47.395 30.622
*I *472:A1 I *L 0.549073 *C 47.256 29.016
*N *2860:2 *C 47.256 29.017
*N *2860:3 *C 47.256 30.523

*CAP
0 *471:Y 0.001
1 *472:A1 0.001
2 *2860:2 0.09376321
3 *2860:3 0.09382293

*RES
0 *471:Y *2860:3 1
1 *2860:2 *472:A1 1
2 *2860:3 *2860:2 2.688393

*END

*D_NET *2862 0.3130644 //LENGTH 3.532 LUMPCC 0 DR

*CONN
*I *472:Y O *L 0 *C 47.408 29.168
*I *475:A2 I *L 0.55521 *C 44.520 29.168
*N *2862:2 *C 44.520 29.155
*N *2862:3 *C 44.520 29.016
*N *2862:4 *C 44.534 29.016
*N *2862:5 *C 47.395 29.016
*N *2862:6 *C 47.408 29.016
*N *2862:7 *C 47.408 29.155

*CAP
0 *472:Y 0.001
1 *475:A2 0.001
2 *2862:2 0.01239499
3 *2862:3 0.01382767
4 *2862:4 0.1299565
5 *2862:5 0.1299565
6 *2862:6 0.01318074
7 *2862:7 0.01174806

*RES
0 *472:Y *2862:7 1
1 *2862:2 *475:A2 1
2 *2862:3 *2862:2 0.2325
3 *2862:4 *2862:3 0.5
4 *2862:6 *2862:5 0.5
5 *2862:5 *2862:4 5.108929
6 *2862:7 *2862:6 0.2325

*END

*D_NET *2865 3.158727 //LENGTH 41.966 LUMPCC 0 DR

*CONN
*I *466:Y O *L 0 *C 24.760 19.744
*I *164:A3 I *L 0.535117 *C 45.888 25.672
*I *472:A2 I *L 0.466516 *C 47.104 29.320
*I *467:A3 I *L 0.519105 *C 40.568 32.512
*N *2865:4 *C 40.386 31.448
*N *2865:5 *C 40.568 32.498
*N *2865:6 *C 40.568 31.462
*N *2865:7 *C 40.556 31.448
*N *2865:8 *C 40.568 31.434
*N *2865:9 *C 47.104 29.188
*N *2865:10 *C 47.104 29.308
*N *2865:11 *C 47.091 29.320
*N *2865:12 *C 45.888 25.686
*N *2865:13 *C 45.888 29.306
*N *2865:14 *C 45.902 29.320
*N *2865:15 *C 46.344 29.320
*N *2865:16 *C 46.344 29.334
*N *2865:17 *C 46.344 30.523
*N *2865:18 *C 46.331 30.536
*N *2865:19 *C 40.582 30.536
*N *2865:20 *C 40.568 30.536
*N *2865:21 *C 40.568 26.902
*N *2865:22 *C 40.555 26.888
*N *2865:23 *C 25.686 26.888
*N *2865:24 *C 25.672 26.875
*N *2865:25 *C 25.672 20.213
*N *2865:26 *C 25.659 20.200
*N *2865:27 *C 24.774 20.200
*N *2865:28 *C 24.760 20.187
*N *2865:29 *C 24.760 19.758

*CAP
0 *466:Y 0.001
1 *164:A3 0.001
2 *472:A2 0.001
3 *467:A3 0.001
4 *2865:4 0.01331384
5 *2865:5 0.05638807
6 *2865:6 0.05782075
7 *2865:7 0.008569947
8 *2865:8 0.03333274
9 *2865:9 0.01503665
10 *2865:10 0.007055632
11 *2865:11 0.02938018
12 *2865:12 0.1830874
13 *2865:13 0.1845201
14 *2865:14 0.0193467
15 *2865:15 0.05307649
16 *2865:16 0.04440098
17 *2865:17 0.0444015
18 *2865:18 0.16997
19 *2865:19 0.16997
20 *2865:20 0.1846573
21 *2865:21 0.1489529
22 *2865:22 0.5241861
23 *2865:23 0.5241861
24 *2865:24 0.2763862
25 *2865:25 0.2763857
26 *2865:26 0.04363905
27 *2865:27 0.0436385
28 *2865:28 0.02222824
29 *2865:29 0.02079556

*RES
0 *466:Y *2865:29 1
1 *2865:10 *472:A2 1
2 *2865:10 *2865:9 0.1991667
3 *2865:11 *2865:10 0.5
4 *2865:13 *2865:12 6.466072
5 *2865:14 *2865:13 0.5
6 *2865:12 *164:A3 1
7 *2865:15 *2865:14 0.7901786
8 *2865:15 *2865:11 1.333036
9 *2865:16 *2865:15 0.5
10 *2865:17 *2865:16 2.123214
11 *2865:18 *2865:17 0.5
12 *2865:20 *2865:19 0.5
13 *2865:20 *2865:8 1.604464
14 *2865:19 *2865:18 10.26607
15 *2865:7 *2865:6 0.5
16 *2865:7 *2865:4 0.2825
17 *2865:8 *2865:7 0.5
18 *2865:6 *2865:5 1.851786
19 *2865:5 *467:A3 1
20 *2865:21 *2865:20 6.49018
21 *2865:22 *2865:21 0.5
22 *2865:24 *2865:23 0.5
23 *2865:23 *2865:22 26.55179
24 *2865:26 *2865:25 0.5
25 *2865:25 *2865:24 11.89464
26 *2865:28 *2865:27 0.5
27 *2865:27 *2865:26 1.580357
28 *2865:29 *2865:28 0.7660714

*END

*D_NET *2871 0.376761 //LENGTH 3.491 LUMPCC 0 DR

*CONN
*I *468:Y O *L 0 *C 44.672 31.296
*I *484:A I *L 0.582888 *C 45.280 30.840
*I *475:A1 I *L 0.610599 *C 44.368 29.320
*N *2871:3 *C 44.368 29.334
*N *2871:4 *C 44.368 30.840
*N *2871:5 *C 45.280 30.658
*N *2871:6 *C 45.280 30.828
*N *2871:7 *C 45.267 30.840
*N *2871:8 *C 44.686 30.840
*N *2871:9 *C 44.672 30.854
*N *2871:10 *C 44.672 31.283

*CAP
0 *468:Y 0.001
1 *484:A 0.001
2 *475:A1 0.001
3 *2871:3 0.09613966
4 *2871:4 0.115854
5 *2871:5 0.01742765
6 *2871:6 0.01125053
7 *2871:7 0.03343752
8 *2871:8 0.03343752
9 *2871:9 0.0417781
10 *2871:10 0.02443597

*RES
0 *468:Y *2871:10 1
1 *2871:10 *2871:9 0.7660714
2 *2871:9 *2871:8 0.5
3 *2871:9 *2871:4 0.5428572
4 *2871:8 *2871:7 1.0375
5 *2871:6 *484:A 1
6 *2871:6 *2871:5 0.2825
7 *2871:7 *2871:6 0.5
8 *2871:3 *475:A1 1
9 *2871:4 *2871:3 2.690179

*END

*D_NET *2876 1.741487 //LENGTH 17.594 LUMPCC 0 DR

*CONN
*I *445:Y O *L 0 *C 44.368 34.032
*I *487:A5 I *L 0.542358 *C 41.632 34.032
*I *165:A1 I *L 0.545966 *C 43.304 36.008
*I *489:A5 I *L 0.542358 *C 42.240 39.504
*I *170:A5 I *L 0.542358 *C 45.280 39.504
*I *470:A1 I *L 0.610599 *C 45.644 34.184
*N *2876:6 *C 44.535 34.184
*N *2876:7 *C 44.519 34.184
*N *2876:8 *C 44.368 34.184
*N *2876:9 *C 45.280 39.518
*N *2876:10 *C 45.280 39.947
*N *2876:11 *C 45.267 39.960
*N *2876:12 *C 42.240 39.518
*N *2876:13 *C 42.240 39.947
*N *2876:14 *C 42.254 39.960
*N *2876:15 *C 43.304 39.960
*N *2876:16 *C 43.304 39.947
*N *2876:17 *C 43.304 36.008
*N *2876:18 *C 43.304 35.110
*N *2876:19 *C 43.291 35.096
*N *2876:20 *C 41.646 35.096
*N *2876:21 *C 41.632 35.083
*N *2876:22 *C 41.632 34.032
*N *2876:23 *C 41.632 33.590
*N *2876:24 *C 41.646 33.576
*N *2876:25 *C 44.355 33.576
*N *2876:26 *C 44.368 33.590
*N *2876:27 *C 44.368 34.032

*CAP
0 *445:Y 0.001
1 *487:A5 0.001
2 *165:A1 0.001
3 *489:A5 0.001
4 *170:A5 0.001
5 *470:A1 0.07501946
6 *2876:6 0.07294407
7 *2876:7 0.006604155
8 *2876:8 0.01679755
9 *2876:9 0.03027114
10 *2876:10 0.03170382
11 *2876:11 0.07743777
12 *2876:12 0.03251354
13 *2876:13 0.03394622
14 *2876:14 0.04964016
15 *2876:15 0.1294501
16 *2876:16 0.2190986
17 *2876:17 0.2743378
18 *2876:18 0.0542996
19 *2876:19 0.07249943
20 *2876:20 0.07249943
21 *2876:21 0.05692587
22 *2876:22 0.08340788
23 *2876:23 0.02554248
24 *2876:24 0.1368646
25 *2876:25 0.1368646
26 *2876:26 0.0205667
27 *2876:27 0.02725202

*RES
0 *445:Y *2876:27 1
1 *2876:6 *470:A1 2.218
2 *2876:7 *2876:6 1
3 *2876:27 *2876:26 0.7901787
4 *2876:27 *2876:8 0.2714286
5 *2876:10 *2876:9 0.7660714
6 *2876:11 *2876:10 0.5
7 *2876:9 *170:A5 1
8 *2876:16 *2876:15 0.5
9 *2876:15 *2876:14 1.875893
10 *2876:15 *2876:11 3.504465
11 *2876:17 *165:A1 1
12 *2876:17 *2876:16 7.033036
13 *2876:13 *2876:12 0.7660714
14 *2876:14 *2876:13 0.5
15 *2876:12 *489:A5 1
16 *2876:18 *2876:17 1.604465
17 *2876:19 *2876:18 0.5
18 *2876:21 *2876:20 0.5
19 *2876:20 *2876:19 2.9375
20 *2876:22 *487:A5 1
21 *2876:22 *2876:21 1.875893
22 *2876:26 *2876:25 0.5
23 *2876:25 *2876:24 4.8375
24 *2876:23 *2876:22 0.7901787
25 *2876:24 *2876:23 0.5
26 *2876:8 *2876:7 0.2696429

*END

*D_NET *2883 0.9665594 //LENGTH 10.225 LUMPCC 0 DR

*CONN
*I *431:Y O *L 0 *C 47.408 41.024
*I *496:A4 I *L 0.513828 *C 44.064 41.024
*I *490:A2 I *L 0.570549 *C 46.997 41.936
*I *169:A2 I *L 0.515513 *C 46.648 44.976
*I *169:A1 I *L 0.484201 *C 46.815 44.216
*N *2883:5 *C 46.648 44.963
*N *2883:6 *C 46.648 44.824
*N *2883:7 *C 46.800 44.824
*N *2883:8 *C 46.800 44.230
*N *2883:9 *C 46.815 44.216
*N *2883:10 *C 47.089 44.216
*N *2883:11 *C 47.103 44.216
*N *2883:12 *C 46.952 44.216
*N *2883:13 *C 46.952 41.936
*N *2883:14 *C 46.952 41.950
*N *2883:15 *C 46.952 42.392
*N *2883:16 *C 46.966 42.392
*N *2883:17 *C 47.395 42.392
*N *2883:18 *C 47.408 42.379
*N *2883:19 *C 44.064 41.038
*N *2883:20 *C 44.064 41.467
*N *2883:21 *C 44.078 41.480
*N *2883:22 *C 47.395 41.480
*N *2883:23 *C 47.408 41.480
*N *2883:24 *C 47.408 41.038

*CAP
0 *431:Y 0.001
1 *496:A4 0.001
2 *490:A2 0.01030064
3 *169:A2 0.001
4 *169:A1 0.001
5 *2883:5 0.005336115
6 *2883:6 0.01665601
7 *2883:7 0.04698663
8 *2883:8 0.03566674
9 *2883:9 0.01697193
10 *2883:10 0.01870143
11 *2883:11 0.00565998
12 *2883:12 0.1035702
13 *2883:13 0.008225243
14 *2883:14 0.02568068
15 *2883:15 0.1212186
16 *2883:16 0.01900912
17 *2883:17 0.01900912
18 *2883:18 0.0496508
19 *2883:19 0.02850369
20 *2883:20 0.02993637
21 *2883:21 0.1546918
22 *2883:22 0.1546918
23 *2883:23 0.07277414
24 *2883:24 0.01931844

*RES
0 *431:Y *2883:24 1
1 *2883:24 *2883:23 0.7901786
2 *2883:13 *490:A2 0.09166668
3 *2883:14 *2883:13 1
4 *2883:18 *2883:17 0.5
5 *2883:17 *2883:16 0.7660714
6 *2883:15 *2883:14 0.7901787
7 *2883:15 *2883:12 3.257143
8 *2883:16 *2883:15 0.5
9 *2883:10 *2883:9 0.5486
10 *2883:11 *2883:10 1
11 *2883:8 *2883:7 1.061607
12 *2883:5 *169:A2 1
13 *2883:23 *2883:22 0.5
14 *2883:23 *2883:18 1.604464
15 *2883:22 *2883:21 5.923215
16 *2883:20 *2883:19 0.7660714
17 *2883:21 *2883:20 0.5
18 *2883:19 *496:A4 1
19 *2883:6 *2883:5 0.2473214
20 *2883:7 *2883:6 0.2714286
21 *2883:12 *2883:11 0.2696429
22 *2883:9 *2883:8 1
23 *2883:9 *169:A1 0.001

*END

*D_NET *2888 1.395665 //LENGTH 14.497 LUMPCC 0 DR

*CONN
*I *411:QN O *L 0 *C 37.211 41.346
*I *432:A3 I *L 0.584801 *C 41.632 42.544
*I *496:A1 I *L 0.483711 *C 43.760 40.872
*I *496:A3 I *L 0.536755 *C 44.368 41.176
*I *490:A1 I *L 0.526361 *C 47.256 42.696
*N *2888:5 *C 47.256 42.683
*N *2888:6 *C 47.256 41.797
*N *2888:7 *C 47.242 41.784
*N *2888:8 *C 44.382 41.784
*N *2888:9 *C 44.368 41.771
*N *2888:10 *C 44.368 41.190
*N *2888:11 *C 44.355 41.176
*N *2888:12 *C 43.760 40.886
*N *2888:13 *C 43.760 41.163
*N *2888:14 *C 43.760 41.176
*N *2888:15 *C 41.632 42.531
*N *2888:16 *C 41.632 41.190
*N *2888:17 *C 41.632 41.176
*N *2888:18 *C 37.086 41.176
*N *2888:19 *C 37.072 41.176
*N *2888:20 *C 37.072 41.316
*N *2888:21 *C 37.084 41.328

*CAP
0 *411:QN 0.01721771
1 *432:A3 0.001
2 *496:A1 0.001
3 *496:A3 0.001
4 *490:A1 0.001
5 *2888:5 0.05477505
6 *2888:6 0.05620773
7 *2888:7 0.138632
8 *2888:8 0.138632
9 *2888:9 0.04555355
10 *2888:10 0.04174866
11 *2888:11 0.0286724
12 *2888:12 0.02292037
13 *2888:13 0.02435305
14 *2888:14 0.1213126
15 *2888:15 0.08843956
16 *2888:16 0.08987224
17 *2888:17 0.2909015
18 *2888:18 0.1982613
19 *2888:19 0.009363233
20 *2888:20 0.009660054
21 *2888:21 0.01514231

*RES
0 *411:QN *2888:21 0.21
1 *2888:9 *2888:8 0.5
2 *2888:8 *2888:7 5.108929
3 *2888:6 *2888:5 1.580357
4 *2888:7 *2888:6 0.5
5 *2888:5 *490:A1 1
6 *2888:10 *496:A3 1
7 *2888:10 *2888:9 1.0375
8 *2888:11 *2888:10 0.5
9 *2888:13 *2888:12 0.4946429
10 *2888:14 *2888:13 0.5
11 *2888:14 *2888:11 1.061607
12 *2888:12 *496:A1 1
13 *2888:16 *2888:15 2.394643
14 *2888:17 *2888:16 0.5
15 *2888:17 *2888:14 3.8
16 *2888:15 *432:A3 1
17 *2888:19 *2888:18 0.5
18 *2888:18 *2888:17 8.118752
19 *2888:21 *2888:20 1
20 *2888:20 *2888:19 0.2325

*END

*D_NET *2894 0.6142825 //LENGTH 5.791 LUMPCC 0 DR

*CONN
*I *418:Q O *L 0 *C 40.112 34.488
*I *487:A1 I *L 0.484201 *C 40.857 34.184
*I *444:A2 I *L 0.578798 *C 41.480 37.528
*N *2894:3 *C 41.480 37.515
*N *2894:4 *C 41.480 35.400
*N *2894:5 *C 41.328 35.400
*N *2894:6 *C 41.328 35.110
*N *2894:7 *C 41.315 35.096
*N *2894:8 *C 40.733 35.096
*N *2894:9 *C 40.720 35.083
*N *2894:10 *C 40.733 34.184
*N *2894:11 *C 40.720 34.198
*N *2894:12 *C 40.112 34.184
*N *2894:13 *C 40.112 34.474

*CAP
0 *418:Q 0.001
1 *487:A1 0.01726427
2 *444:A2 0.001
3 *2894:3 0.1181404
4 *2894:4 0.1309285
5 *2894:5 0.03685727
6 *2894:6 0.02550183
7 *2894:7 0.02737038
8 *2894:8 0.02737038
9 *2894:9 0.06085749
10 *2894:10 0.01518888
11 *2894:11 0.09067381
12 *2894:12 0.04772683
13 *2894:13 0.01440243

*RES
0 *418:Q *2894:13 1
1 *2894:9 *2894:8 0.5
2 *2894:8 *2894:7 1.0375
3 *2894:6 *2894:5 0.5187501
4 *2894:7 *2894:6 0.5
5 *2894:3 *444:A2 1
6 *2894:10 *487:A1 0.2075
7 *2894:11 *2894:10 1
8 *2894:11 *2894:9 1.580357
9 *2894:13 *2894:12 0.5187501
10 *2894:12 *2894:11 1.085714
11 *2894:5 *2894:4 0.2714286
12 *2894:4 *2894:3 3.775893

*END

*D_NET *2898 1.728833 //LENGTH 17.680 LUMPCC 0 DR

*CONN
*I *414:Q O *L 0 *C 39.808 32.360
*I *424:A1 I *L 0.530735 *C 39.960 29.320
*I *419:A2 I *L 0.499019 *C 41.480 27.800
*I *433:A2 I *L 0.509119 *C 43.000 32.360
*I *468:A1 I *L 0.526794 *C 44.064 30.992
*I *471:A4 I *L 0.601444 *C 46.344 30.992
*N *2898:6 *C 46.344 30.992
*N *2898:7 *C 46.344 31.132
*N *2898:8 *C 46.331 31.144
*N *2898:9 *C 44.064 30.992
*N *2898:10 *C 44.064 31.132
*N *2898:11 *C 44.064 31.144
*N *2898:12 *C 43.000 32.346
*N *2898:13 *C 43.000 31.158
*N *2898:14 *C 43.000 31.144
*N *2898:15 *C 42.406 31.144
*N *2898:16 *C 42.392 31.131
*N *2898:17 *C 42.392 28.422
*N *2898:18 *C 42.379 28.408
*N *2898:19 *C 41.494 28.408
*N *2898:20 *C 41.480 28.395
*N *2898:21 *C 41.480 27.800
*N *2898:22 *C 41.480 27.510
*N *2898:23 *C 41.467 27.496
*N *2898:24 *C 39.974 27.496
*N *2898:25 *C 39.960 27.510
*N *2898:26 *C 39.960 29.320
*N *2898:27 *C 39.960 30.232
*N *2898:28 *C 39.808 30.232
*N *2898:29 *C 39.808 32.346

*CAP
0 *414:Q 0.001
1 *424:A1 0.001
2 *419:A2 0.001
3 *433:A2 0.001
4 *468:A1 0.001
5 *471:A4 0.001
6 *2898:6 0.01062009
7 *2898:7 0.01205277
8 *2898:8 0.09667934
9 *2898:9 0.009385839
10 *2898:10 0.01081852
11 *2898:11 0.1423374
12 *2898:12 0.07767657
13 *2898:13 0.07910925
14 *2898:14 0.06887732
15 *2898:15 0.02321923
16 *2898:16 0.1283228
17 *2898:17 0.1283228
18 *2898:18 0.04831994
19 *2898:19 0.04831994
20 *2898:20 0.04912212
21 *2898:21 0.07557251
22 *2898:22 0.02551084
23 *2898:23 0.07931683
24 *2898:24 0.07931683
25 *2898:25 0.095641
26 *2898:26 0.1432782
27 *2898:27 0.05826483
28 *2898:28 0.1228742
29 *2898:29 0.1098744

*RES
0 *414:Q *2898:29 1
1 *2898:7 *2898:6 0.2325
2 *2898:8 *2898:7 0.5
3 *2898:6 *471:A4 1
4 *2898:10 *2898:9 0.2325
5 *2898:11 *2898:10 0.5
6 *2898:11 *2898:8 4.047322
7 *2898:9 *468:A1 1
8 *2898:13 *2898:12 2.123214
9 *2898:14 *2898:13 0.5
10 *2898:14 *2898:11 1.9
11 *2898:12 *433:A2 1
12 *2898:16 *2898:15 0.5
13 *2898:15 *2898:14 1.061607
14 *2898:17 *2898:16 4.837501
15 *2898:18 *2898:17 0.5
16 *2898:20 *2898:19 0.5
17 *2898:19 *2898:18 1.580357
18 *2898:21 *419:A2 1
19 *2898:21 *2898:20 1.061607
20 *2898:26 *424:A1 1
21 *2898:26 *2898:25 3.233036
22 *2898:22 *2898:21 0.5187501
23 *2898:23 *2898:22 0.5
24 *2898:25 *2898:24 0.5
25 *2898:24 *2898:23 2.666071
26 *2898:29 *2898:28 3.775893
27 *2898:28 *2898:27 0.2714286
28 *2898:27 *2898:26 1.628572

*END

*D_NET *2902 0.7419849 //LENGTH 8.262 LUMPCC 0 DR

*CONN
*I *412:Q O *L 0 *C 40.568 42.392
*I *492:A1 I *L 0.484201 *C 42.696 46.040
*I *495:A3 I *L 0.536755 *C 43.456 42.392
*I *495:A1 I *L 0.483711 *C 44.064 42.696
*N *2902:4 *C 40.568 42.210
*N *2902:5 *C 44.064 42.683
*N *2902:6 *C 44.064 42.406
*N *2902:7 *C 44.050 42.392
*N *2902:8 *C 43.456 42.210
*N *2902:9 *C 43.456 42.380
*N *2902:10 *C 43.456 42.392
*N *2902:11 *C 42.696 46.027
*N *2902:12 *C 42.696 42.406
*N *2902:13 *C 42.696 42.392
*N *2902:14 *C 40.582 42.392
*N *2902:15 *C 40.568 42.380

*CAP
0 *412:Q 0.001
1 *492:A1 0.001
2 *495:A3 0.001
3 *495:A1 0.001
4 *2902:4 0.01618803
5 *2902:5 0.01782129
6 *2902:6 0.01925397
7 *2902:7 0.0261324
8 *2902:8 0.02049585
9 *2902:9 0.01431873
10 *2902:10 0.05778896
11 *2902:11 0.169533
12 *2902:12 0.1709657
13 *2902:13 0.1235663
14 *2902:14 0.09190974
15 *2902:15 0.01001092

*RES
0 *412:Q *2902:15 1
1 *2902:6 *2902:5 0.4946429
2 *2902:7 *2902:6 0.5
3 *2902:5 *495:A1 1
4 *2902:9 *495:A3 1
5 *2902:9 *2902:8 0.2825
6 *2902:10 *2902:9 0.5
7 *2902:10 *2902:7 1.061607
8 *2902:12 *2902:11 6.466071
9 *2902:13 *2902:12 0.5
10 *2902:13 *2902:10 1.357143
11 *2902:11 *492:A1 1
12 *2902:15 *2902:14 0.5
13 *2902:15 *2902:4 0.2825
14 *2902:14 *2902:13 3.775893

*END

*D_NET *2907 0.814657 //LENGTH 7.831 LUMPCC 0 DR

*CONN
*I *164:Y O *L 0 *C 44.824 26.280
*I *410:D I *L 0.543562 *C 38.744 27.344
*N *2907:2 *C 44.824 26.098
*N *2907:3 *C 38.744 27.332
*N *2907:4 *C 38.744 27.192
*N *2907:5 *C 38.758 27.192
*N *2907:6 *C 42.379 27.192
*N *2907:7 *C 42.392 27.178
*N *2907:8 *C 42.392 26.294
*N *2907:9 *C 42.406 26.280
*N *2907:10 *C 44.811 26.280
*N *2907:11 *C 44.824 26.268

*CAP
0 *164:Y 0.001
1 *410:D 0.001
2 *2907:2 0.0194247
3 *2907:3 0.0111784
4 *2907:4 0.01261108
5 *2907:5 0.226005
6 *2907:6 0.2260055
7 *2907:7 0.03582028
8 *2907:8 0.03582028
9 *2907:9 0.1162724
10 *2907:10 0.1162718
11 *2907:11 0.01324758

*RES
0 *164:Y *2907:11 1
1 *2907:3 *410:D 1
2 *2907:4 *2907:3 0.2325
3 *2907:5 *2907:4 0.5
4 *2907:6 *2907:5 6.466072
5 *2907:7 *2907:6 0.5
6 *2907:9 *2907:8 0.5
7 *2907:8 *2907:7 1.580357
8 *2907:11 *2907:10 0.5
9 *2907:11 *2907:2 0.2825
10 *2907:10 *2907:9 4.294643

*END

*D_NET *2910 0.715036 //LENGTH 6.806 LUMPCC 0 DR

*CONN
*I *507:Y O *L 0 *C 43.304 10.776
*I *508:A5 I *L 0.557577 *C 39.200 10.776
*N *2910:2 *C 43.304 10.594
*N *2910:3 *C 39.200 10.763
*N *2910:4 *C 39.200 9.712
*N *2910:5 *C 41.480 9.712
*N *2910:6 *C 41.480 10.763
*N *2910:7 *C 41.494 10.776
*N *2910:8 *C 43.291 10.776
*N *2910:9 *C 43.304 10.764

*CAP
0 *507:Y 0.001
1 *508:A5 0.001
2 *2910:2 0.01361146
3 *2910:3 0.06968524
4 *2910:4 0.1749742
5 *2910:5 0.1838419
6 *2910:6 0.0799856
7 *2910:7 0.09175164
8 *2910:8 0.09175164
9 *2910:9 0.007434342

*RES
0 *507:Y *2910:9 1
1 *2910:3 *508:A5 1
2 *2910:6 *2910:5 1.875893
3 *2910:7 *2910:6 0.5
4 *2910:9 *2910:8 0.5
5 *2910:9 *2910:2 0.2825
6 *2910:8 *2910:7 3.208929
7 *2910:4 *2910:3 1.875893
8 *2910:5 *2910:4 4.071429

*END

*D_NET *2912 0.2258071 //LENGTH 2.046 LUMPCC 0 DR

*CONN
*I *208:Y O *L 0 *C 8.496 6.064
*I *209:A3 I *L 0.539281 *C 8.648 7.736
*N *2912:2 *C 8.648 7.723
*N *2912:3 *C 8.648 7.128
*N *2912:4 *C 8.496 7.128
*N *2912:5 *C 8.496 6.078

*CAP
0 *208:Y 0.001
1 *209:A3 0.001
2 *2912:2 0.04150547
3 *2912:3 0.05381951
4 *2912:4 0.07039806
5 *2912:5 0.05808403

*RES
0 *208:Y *2912:5 1
1 *2912:2 *209:A3 1
2 *2912:5 *2912:4 1.875893
3 *2912:4 *2912:3 0.2714286
4 *2912:3 *2912:2 1.061607

*END

*D_NET *2915 0.3485434 //LENGTH 2.677 LUMPCC 0 DR

*CONN
*I *271:Y O *L 0 *C 32.014 15.805
*I *80:A3 I *L 0.455637 *C 32.482 17.793
*N *2915:2 *C 32.071 17.768
*N *2915:3 *C 32.056 17.755
*N *2915:4 *C 32.056 15.806
*N *2915:5 *C 32.056 15.792

*CAP
0 *271:Y 0.01356008
1 *80:A3 0.02802006
2 *2915:2 0.02594466
3 *2915:3 0.1347669
4 *2915:4 0.1347669
5 *2915:5 0.01148468

*RES
0 *271:Y *2915:5 0.09166668
1 *2915:2 *80:A3 0.8220002
2 *2915:3 *2915:2 1
3 *2915:5 *2915:4 1
4 *2915:4 *2915:3 3.480357

*END

*D_NET *2918 1.724974 //LENGTH 18.114 LUMPCC 0 DR

*CONN
*I *79:Y O *L 0 *C 26.280 34.032
*I *105:A1 I *L 0.529859 *C 29.016 18.984
*N *2918:2 *C 29.016 18.998
*N *2918:3 *C 29.016 20.491
*N *2918:4 *C 29.003 20.504
*N *2918:5 *C 26.294 20.504
*N *2918:6 *C 26.280 20.518
*N *2918:7 *C 26.280 34.019

*CAP
0 *79:Y 0.001
1 *105:A1 0.001
2 *2918:2 0.07314181
3 *2918:3 0.07457449
4 *2918:4 0.1142781
5 *2918:5 0.1142781
6 *2918:6 0.6740673
7 *2918:7 0.6726346

*RES
0 *79:Y *2918:7 1
1 *2918:2 *105:A1 1
2 *2918:3 *2918:2 2.666072
3 *2918:4 *2918:3 0.5
4 *2918:6 *2918:5 0.5
5 *2918:5 *2918:4 4.8375
6 *2918:7 *2918:6 24.10893

*END

*D_NET *2 2.871581 //LENGTH 43.357 LUMPCC 0 DR

*CONN
*P *2 I *L 0 *C 52.454 32.664
*I *465:A1 I *L 0.549073 *C 23.694 21.140
*I *378:A2 I *L 0.501039 *C 22.176 22.328
*N *2:3 *C 22.176 22.315
*N *2:4 *C 22.176 21.733
*N *2:5 *C 22.190 21.720
*N *2:6 *C 23.556 21.112
*N *2:7 *C 23.544 21.126
*N *2:8 *C 23.544 21.707
*N *2:9 *C 23.544 21.720
*N *2:10 *C 24.443 21.720
*N *2:11 *C 24.456 21.733
*N *2:12 *C 24.456 22.619
*N *2:13 *C 24.470 22.632
*N *2:14 *C 49.067 22.632
*N *2:15 *C 49.080 22.646
*N *2:16 *C 49.080 32.651
*N *2:17 *C 49.093 32.664

*CAP
0 *2 0.1041874
1 *465:A1 0.01435878
2 *378:A2 0.001
3 *2:3 0.04130961
4 *2:4 0.04274229
5 *2:5 0.0523253
6 *2:6 0.01228338
7 *2:7 0.05520724
8 *2:8 0.05491042
9 *2:9 0.09344204
10 *2:10 0.03874507
11 *2:11 0.04259171
12 *2:12 0.04259223
13 *2:13 0.7867115
14 *2:14 0.7867115
15 *2:15 0.3003235
16 *2:16 0.300323
17 *2:17 0.1018158

*RES
0 *2 *2:17 6.000893
1 *2:10 *2:9 1.604464
2 *2:11 *2:10 0.5
3 *2:12 *2:11 1.580357
4 *2:13 *2:12 0.5
5 *2:15 *2:14 0.5
6 *2:14 *2:13 43.92321
7 *2:17 *2:16 0.5
8 *2:16 *2:15 17.86607
9 *2:8 *2:7 1.0375
10 *2:9 *2:8 0.5
11 *2:9 *2:5 2.41875
12 *2:6 *465:A1 0.2283333
13 *2:7 *2:6 1
14 *2:4 *2:3 1.0375
15 *2:5 *2:4 0.5
16 *2:3 *378:A2 1

*END

*D_NET *8 4.584743 //LENGTH 57.509 LUMPCC 0 DR

*CONN
*P *8 I *L 0 *C 26.584 0.258
*I *474:A1 I *L 0.610599 *C 43.456 27.496
*I *485:A2 I *L 0.538095 *C 46.344 32.816
*I *469:A I *L 0.582888 *C 47.408 36.008
*N *8:4 *C 47.408 35.995
*N *8:5 *C 47.408 35.110
*N *8:6 *C 47.395 35.096
*N *8:7 *C 46.358 35.096
*N *8:8 *C 46.344 35.083
*N *8:9 *C 46.344 32.816
*N *8:10 *C 46.344 31.766
*N *8:11 *C 46.331 31.752
*N *8:12 *C 43.470 31.752
*N *8:13 *C 43.456 31.739
*N *8:14 *C 43.456 27.496
*N *8:15 *C 43.456 25.686
*N *8:16 *C 43.443 25.672
*N *8:17 *C 43.014 25.672
*N *8:18 *C 43.000 25.659
*N *8:19 *C 43.000 3.190
*N *8:20 *C 42.986 3.176
*N *8:21 *C 26.598 3.176
*N *8:22 *C 26.584 3.163

*CAP
0 *8 0.116521
1 *474:A1 0.001
2 *485:A2 0.001
3 *469:A 0.001
4 *8:4 0.03583858
5 *8:5 0.03727126
6 *8:6 0.03796036
7 *8:7 0.03796036
8 *8:8 0.1155134
9 *8:9 0.1816694
10 *8:10 0.06521647
11 *8:11 0.1186951
12 *8:12 0.1186951
13 *8:13 0.2517561
14 *8:14 0.3636752
15 *8:15 0.1109795
16 *8:16 0.02455916
17 *8:17 0.02455971
18 *8:18 0.8697301
19 *8:19 0.8697301
20 *8:20 0.5436317
21 *8:21 0.5436311
22 *8:22 0.1141488

*RES
0 *8 *8:22 5.186607
1 *8:8 *8:7 0.5
2 *8:7 *8:6 1.851786
3 *8:5 *8:4 1.580357
4 *8:6 *8:5 0.5
5 *8:4 *469:A 1
6 *8:9 *485:A2 1
7 *8:9 *8:8 4.047322
8 *8:10 *8:9 1.875893
9 *8:11 *8:10 0.5
10 *8:13 *8:12 0.5
11 *8:12 *8:11 5.108928
12 *8:14 *474:A1 1
13 *8:14 *8:13 7.575894
14 *8:15 *8:14 3.233036
15 *8:16 *8:15 0.5
16 *8:17 *8:16 0.7660714
17 *8:18 *8:17 0.5
18 *8:20 *8:19 0.5
19 *8:19 *8:18 40.12321
20 *8:22 *8:21 0.5
21 *8:21 *8:20 29.26608

*END

*D_NET *17 2.137512 //LENGTH 32.251 LUMPCC 0 DR

*CONN
*I *116:Y O *L 0 *C 30.688 22.936
*P *17 O *L 0.05 *C 0.258 22.936
*N *17:2 *C 5.595 22.936
*N *17:3 *C 5.608 22.950
*N *17:4 *C 5.608 23.227
*N *17:5 *C 5.622 23.240
*N *17:6 *C 26.267 23.240
*N *17:7 *C 26.280 23.254
*N *17:8 *C 26.280 23.530
*N *17:9 *C 26.294 23.544
*N *17:10 *C 30.675 23.544
*N *17:11 *C 30.688 23.530
*N *17:12 *C 30.688 22.950

*CAP
0 *116:Y 0.001
1 *17 0.174166
2 *17:2 0.1717943
3 *17:3 0.01249077
4 *17:4 0.0124913
5 *17:5 0.6404594
6 *17:6 0.6404594
7 *17:7 0.01548566
8 *17:8 0.01548514
9 *17:9 0.1847366
10 *17:10 0.184736
11 *17:11 0.04281985
12 *17:12 0.04138717

*RES
0 *116:Y *17:12 1
1 *17:12 *17:11 1.0375
2 *17:11 *17:10 0.5
3 *17:10 *17:9 7.823215
4 *17:9 *17:8 0.5
5 *17:8 *17:7 0.4946429
6 *17:7 *17:6 0.5
7 *17:6 *17:5 36.86608
8 *17:4 *17:3 0.4946429
9 *17:5 *17:4 0.5
10 *17:2 *17 9.529465
11 *17:3 *17:2 0.5

*END

*D_NET *21 0.3655751 //LENGTH 6.123 LUMPCC 0 DR

*CONN
*I *128:Y O *L 0 *C 47.560 46.192
*P *21 O *L 0.05 *C 52.454 47.256
*N *21:2 *C 47.574 47.256
*N *21:3 *C 47.560 47.242
*N *21:4 *C 47.560 46.206

*CAP
0 *128:Y 0.001
1 *21 0.1442643
2 *21:2 0.1418921
3 *21:3 0.03992572
4 *21:4 0.03849304

*RES
0 *128:Y *21:4 1
1 *21:4 *21:3 1.851786
2 *21:3 *21:2 0.5
3 *21:2 *21 8.715178

*END

*D_NET *24 0.68687 //LENGTH 7.581 LUMPCC 0 DR

*CONN
*I *70:Y O *L 0 *C 40.416 6.216
*P *24 O *L 0.05 *C 41.632 0.258
*N *24:2 *C 40.416 6.034
*N *24:3 *C 41.632 6.203
*N *24:4 *C 41.619 6.216
*N *24:5 *C 40.430 6.216
*N *24:6 *C 40.416 6.204

*CAP
0 *70:Y 0.001
1 *24 0.2599523
2 *24:2 0.01345655
3 *24:3 0.2575801
4 *24:4 0.07380075
5 *24:5 0.07380075
6 *24:6 0.007279435

*RES
0 *70:Y *24:6 1
1 *24:6 *24:5 0.5
2 *24:6 *24:2 0.2825
3 *24:5 *24:4 2.123214
4 *24:3 *24 10.61518
5 *24:4 *24:3 0.5

*END

*D_NET *27 0.6478119 //LENGTH 9.734 LUMPCC 0 DR

*CONN
*I *126:Y O *L 0 *C 47.560 6.064
*P *27 O *L 0.05 *C 51.208 0.258
*N *27:2 *C 51.208 5.899
*N *27:3 *C 51.195 5.912
*N *27:4 *C 47.574 5.912
*N *27:5 *C 47.560 5.912
*N *27:6 *C 47.560 6.051

*CAP
0 *126:Y 0.001
1 *27 0.1920816
2 *27:2 0.1897094
3 *27:3 0.1254178
4 *27:4 0.1254178
5 *27:5 0.007809076
6 *27:6 0.006376397

*RES
0 *126:Y *27:6 1
1 *27:6 *27:5 0.2325
2 *27:5 *27:4 0.5
3 *27:4 *27:3 6.466072
4 *27:2 *27 10.07232
5 *27:3 *27:2 0.5

*END

*D_NET *33 0.6556929 //LENGTH 7.949 LUMPCC 0 DR

*CONN
*I *110:Y O *L 0 *C 12.448 43.915
*P *33 O *L 0.05 *C 12.600 51.542
*N *33:2 *C 12.600 45.736
*N *33:3 *C 12.448 45.736
*N *33:4 *C 12.448 43.925

*CAP
0 *110:Y 0.001
1 *33 0.2254698
2 *33:2 0.2333895
3 *33:3 0.1037492
4 *33:4 0.09208436

*RES
0 *110:Y *33:4 1
1 *33:4 *33:3 3.233036
2 *33:3 *33:2 0.2714286
3 *33:2 *33 10.36786

*END

*D_NET *34 0.4407051 //LENGTH 6.731 LUMPCC 0 DR

*CONN
*I *123:Y O *L 0 *C 47.560 26.128
*P *34 O *L 0.05 *C 52.454 27.800
*N *34:2 *C 47.574 27.800
*N *34:3 *C 47.560 27.787
*N *34:4 *C 47.560 26.142

*CAP
0 *123:Y 0.001
1 *34 0.1554144
2 *34:2 0.1530422
3 *34:3 0.0663406
4 *34:4 0.06490792

*RES
0 *123:Y *34:4 1
1 *34:4 *34:3 2.9375
2 *34:3 *34:2 0.5
3 *34:2 *34 8.715178

*END

*D_NET *38 1.986285 //LENGTH 24.086 LUMPCC 0 DR

*CONN
*I *47:Y O *L 0 *C 21.236 28.864
*P *38 O *L 0.05 *C 0.258 26.280
*I *48:A I *L 0.582888 *C 20.808 25.976
*N *38:3 *C 20.808 25.989
*N *38:4 *C 20.794 26.280
*N *38:5 *C 20.808 26.280
*N *38:6 *C 20.808 28.851
*N *38:7 *C 20.823 28.864

*CAP
0 *47:Y 0.03569619
1 *38 0.7522017
2 *48:A 0.001
3 *38:3 0.02058909
4 *38:4 0.7498295
5 *38:5 0.2087223
6 *38:6 0.1846251
7 *38:7 0.03362079

*RES
0 *47:Y *38:7 0.8260002
1 *38:7 *38:6 1
2 *38:6 *38:5 4.590179
3 *38:3 *48:A 1
4 *38:5 *38:4 0.5
5 *38:5 *38:3 0.5187501
6 *38:4 *38 36.67233

*END

*D_NET *41 1.484488 //LENGTH 22.795 LUMPCC 0 DR

*CONN
*I *107:Y O *L 0 *C 20.736 27.192
*P *41 O *L 0.05 *C 0.258 28.408
*N *41:2 *C 20.656 27.010
*N *41:3 *C 3.771 28.408
*N *41:4 *C 3.784 28.395
*N *41:5 *C 3.784 28.117
*N *41:6 *C 3.798 28.104
*N *41:7 *C 20.794 28.104
*N *41:8 *C 20.808 28.091
*N *41:9 *C 20.808 27.206
*N *41:10 *C 20.796 27.192
*N *41:11 *C 20.656 27.192
*N *41:12 *C 20.656 27.180
*N *41:13 *C 20.669 27.192

*CAP
0 *107:Y 0.01107896
1 *41 0.1135295
2 *41:2 0.02278481
3 *41:3 0.1111578
4 *41:4 0.0116233
5 *41:5 0.01162383
6 *41:6 0.5418917
7 *41:7 0.5418917
8 *41:8 0.03292533
9 *41:9 0.03292481
10 *41:10 0.01285792
11 *41:11 0.01285737
12 *41:12 0.0183372
13 *41:13 0.009003559

*RES
0 *107:Y *41:13 0.1125
1 *41:13 *41:12 1
2 *41:12 *41:11 0.5
3 *41:12 *41:2 0.2825
4 *41:11 *41:10 0.2325
5 *41:10 *41:9 0.5
6 *41:9 *41:8 1.580357
7 *41:8 *41:7 0.5
8 *41:7 *41:6 30.35179
9 *41:5 *41:4 0.4946429
10 *41:6 *41:5 0.5
11 *41:3 *41 6.272322
12 *41:4 *41:3 0.5

*END

*D_NET *2554 6.820165 //LENGTH 76.541 LUMPCC 0 DR

*CONN
*I *158:Y O *L 0 *C 43.000 26.584
*I *282:A2 I *L 0.466516 *C 35.704 34.184
*I *275:A2 I *L 0.578798 *C 34.488 34.184
*I *319:A4 I *L 0.443333 *C 32.664 40.872
*I *314:A2 I *L 0.466516 *C 34.032 40.872
*I *278:A4 I *L 0.565045 *C 31.600 36.008
*I *221:A2 I *L 0.537813 *C 10.320 32.664
*I *265:A5 I *L 0.542358 *C 8.040 29.472
*I *161:A1 I *L 0.604822 *C 8.648 41.024
*I *263:A1 I *L 0.549073 *C 44.216 27.800
*I *206:A2 I *L 0.507925 *C 44.216 21.872
*N *2554:11 *C 44.216 21.886
*N *2554:12 *C 44.216 23.696
*N *2554:13 *C 44.520 23.696
*N *2554:14 *C 44.520 26.736
*N *2554:15 *C 44.216 26.736
*N *2554:16 *C 44.216 27.800
*N *2554:17 *C 44.216 28.091
*N *2554:18 *C 44.203 28.104
*N *2554:19 *C 8.648 41.024
*N *2554:20 *C 8.648 41.163
*N *2554:21 *C 8.662 41.176
*N *2554:22 *C 10.306 41.176
*N *2554:23 *C 10.320 41.163
*N *2554:24 *C 8.040 29.486
*N *2554:25 *C 8.040 31.739
*N *2554:26 *C 8.053 31.752
*N *2554:27 *C 10.306 31.752
*N *2554:28 *C 10.320 31.766
*N *2554:29 *C 10.320 32.664
*N *2554:30 *C 10.320 34.792
*N *2554:31 *C 10.334 34.792
*N *2554:32 *C 15.627 34.792
*N *2554:33 *C 15.640 34.806
*N *2554:34 *C 15.640 35.387
*N *2554:35 *C 15.654 35.400
*N *2554:36 *C 31.600 35.995
*N *2554:37 *C 31.600 35.413
*N *2554:38 *C 31.600 35.400
*N *2554:39 *C 34.032 40.871
*N *2554:40 *C 34.032 40.264
*N *2554:41 *C 32.664 40.858
*N *2554:42 *C 32.664 40.278
*N *2554:43 *C 32.678 40.264
*N *2554:44 *C 33.715 40.264
*N *2554:45 *C 33.728 40.264
*N *2554:46 *C 33.728 35.413
*N *2554:47 *C 33.728 35.400
*N *2554:48 *C 34.474 35.400
*N *2554:49 *C 34.488 35.387
*N *2554:50 *C 34.488 34.198
*N *2554:51 *C 34.502 34.184
*N *2554:52 *C 35.704 34.052
*N *2554:53 *C 35.704 34.172
*N *2554:54 *C 35.704 34.184
*N *2554:55 *C 39.035 34.184
*N *2554:56 *C 39.048 34.171
*N *2554:57 *C 39.048 28.117
*N *2554:58 *C 39.062 28.104
*N *2554:59 *C 43.000 28.104
*N *2554:60 *C 43.000 28.091
*N *2554:61 *C 43.000 26.598

*CAP
0 *158:Y 0.001
1 *282:A2 0.001
2 *275:A2 0.001
3 *319:A4 0.001
4 *314:A2 0.001
5 *278:A4 0.001
6 *221:A2 0.001
7 *265:A5 0.001
8 *161:A1 0.001
9 *263:A1 0.001
10 *206:A2 0.001
11 *2554:11 0.09951699
12 *2554:12 0.1185537
13 *2554:13 0.1794689
14 *2554:14 0.1800764
15 *2554:15 0.09289996
16 *2554:16 0.09803372
17 *2554:17 0.02240575
18 *2554:18 0.05421518
19 *2554:19 0.01483308
20 *2554:20 0.01626576
21 *2554:21 0.07352059
22 *2554:22 0.07352059
23 *2554:23 0.3057115
24 *2554:24 0.1120726
25 *2554:25 0.1135053
26 *2554:26 0.1019925
27 *2554:27 0.1019925
28 *2554:28 0.05207948
29 *2554:29 0.1464524
30 *2554:30 0.4015171
31 *2554:31 0.1825847
32 *2554:32 0.1825853
33 *2554:33 0.02192741
34 *2554:34 0.02192741
35 *2554:35 0.6690659
36 *2554:36 0.03445704
37 *2554:37 0.03588971
38 *2554:38 0.7740799
39 *2554:39 0.03502053
40 *2554:40 0.05318973
41 *2554:41 0.03993363
42 *2554:42 0.04136631
43 *2554:43 0.04456741
44 *2554:44 0.04456741
45 *2554:45 0.2436656
46 *2554:46 0.2291284
47 *2554:47 0.1403971
48 *2554:48 0.03538263
49 *2554:49 0.0880237
50 *2554:50 0.0842188
51 *2554:51 0.05399022
52 *2554:52 0.0142159
53 *2554:53 0.006234887
54 *2554:54 0.1939088
55 *2554:55 0.1395237
56 *2554:56 0.215574
57 *2554:57 0.215574
58 *2554:58 0.185222
59 *2554:59 0.2418088
60 *2554:60 0.09163778
61 *2554:61 0.09086231

*RES
0 *158:Y *2554:61 1
1 *2554:16 *263:A1 1
2 *2554:16 *2554:15 1.9
3 *2554:11 *206:A2 1
4 *2554:17 *2554:16 0.5187501
5 *2554:18 *2554:17 0.5
6 *2554:60 *2554:59 0.5
7 *2554:59 *2554:58 7.033036
8 *2554:59 *2554:18 2.147322
9 *2554:61 *2554:60 2.666071
10 *2554:58 *2554:57 0.5
11 *2554:57 *2554:56 10.80893
12 *2554:55 *2554:54 5.947322
13 *2554:56 *2554:55 0.5
14 *2554:53 *282:A2 1
15 *2554:53 *2554:52 0.1991667
16 *2554:54 *2554:53 0.5
17 *2554:54 *2554:51 2.147322
18 *2554:50 *275:A2 1
19 *2554:50 *2554:49 2.123214
20 *2554:51 *2554:50 0.5
21 *2554:39 *314:A2 1
22 *2554:49 *2554:48 0.5
23 *2554:48 *2554:47 1.333036
24 *2554:46 *2554:45 8.661608
25 *2554:47 *2554:46 0.5
26 *2554:47 *2554:38 3.8
27 *2554:45 *2554:44 0.5
28 *2554:45 *2554:40 0.5428572
29 *2554:44 *2554:43 1.851786
30 *2554:42 *2554:41 1.0375
31 *2554:43 *2554:42 0.5
32 *2554:41 *319:A4 1
33 *2554:37 *2554:36 1.0375
34 *2554:38 *2554:37 0.5
35 *2554:38 *2554:35 28.47589
36 *2554:36 *278:A4 1
37 *2554:35 *2554:34 0.5
38 *2554:34 *2554:33 1.0375
39 *2554:32 *2554:31 9.451786
40 *2554:33 *2554:32 0.5
41 *2554:30 *2554:29 3.8
42 *2554:30 *2554:23 11.37589
43 *2554:31 *2554:30 0.5
44 *2554:29 *221:A2 1
45 *2554:29 *2554:28 1.604464
46 *2554:23 *2554:22 0.5
47 *2554:22 *2554:21 2.9375
48 *2554:20 *2554:19 0.2325
49 *2554:21 *2554:20 0.5
50 *2554:19 *161:A1 1
51 *2554:28 *2554:27 0.5
52 *2554:27 *2554:26 4.023215
53 *2554:25 *2554:24 4.023214
54 *2554:26 *2554:25 0.5
55 *2554:24 *265:A5 1
56 *2554:40 *2554:39 1.083929
57 *2554:12 *2554:11 3.233036
58 *2554:13 *2554:12 0.5428572
59 *2554:15 *2554:14 0.5428572
60 *2554:14 *2554:13 5.428572

*END

*D_NET *2560 0.5759768 //LENGTH 5.954 LUMPCC 0 DR

*CONN
*I *73:Y O *L 0 *C 34.488 21.264
*I *80:A2 I *L 0.45541 *C 32.664 17.464
*N *2560:2 *C 32.664 17.477
*N *2560:3 *C 32.664 19.883
*N *2560:4 *C 32.678 19.896
*N *2560:5 *C 34.474 19.896
*N *2560:6 *C 34.488 19.910
*N *2560:7 *C 34.488 21.251

*CAP
0 *73:Y 0.001
1 *80:A2 0.001
2 *2560:2 0.1360443
3 *2560:3 0.137477
4 *2560:4 0.07753026
5 *2560:5 0.07753026
6 *2560:6 0.07341385
7 *2560:7 0.07198117

*RES
0 *73:Y *2560:7 1
1 *2560:2 *80:A2 1
2 *2560:3 *2560:2 4.294643
3 *2560:4 *2560:3 0.5
4 *2560:6 *2560:5 0.5
5 *2560:5 *2560:4 3.208929
6 *2560:7 *2560:6 2.394643

*END

*D_NET *2562 0.8839891 //LENGTH 8.611 LUMPCC 0 DR

*CONN
*I *71:Y O *L 0 *C 29.472 17.312
*I *73:A3 I *L 0.557478 *C 33.728 20.200
*I *86:A2 I *L 0.515513 *C 34.032 18.528
*N *2562:3 *C 34.032 18.541
*N *2562:4 *C 33.728 20.187
*N *2562:5 *C 33.728 18.984
*N *2562:6 *C 34.032 18.971
*N *2562:7 *C 34.019 18.984
*N *2562:8 *C 29.486 18.984
*N *2562:9 *C 29.472 18.971
*N *2562:10 *C 29.472 17.326

*CAP
0 *71:Y 0.001
1 *73:A3 0.001
2 *86:A2 0.001
3 *2562:3 0.01945607
4 *2562:4 0.09361162
5 *2562:5 0.1130063
6 *2562:6 0.03647855
7 *2562:7 0.22292
8 *2562:8 0.22292
9 *2562:9 0.08701462
10 *2562:10 0.08558194

*RES
0 *71:Y *2562:10 1
1 *2562:3 *86:A2 1
2 *2562:4 *73:A3 1
3 *2562:6 *2562:5 0.5428572
4 *2562:6 *2562:3 0.7660714
5 *2562:7 *2562:6 0.5
6 *2562:9 *2562:8 0.5
7 *2562:8 *2562:7 8.094644
8 *2562:10 *2562:9 2.9375
9 *2562:5 *2562:4 2.147322

*END

*D_NET *2564 0.708009 //LENGTH 6.044 LUMPCC 0 DR

*CONN
*I *76:Y O *L 0 *C 37.224 6.064
*I *77:A3 I *L 0.557478 *C 37.528 9.864
*I *81:A4 I *L 0.537263 *C 37.832 10.928
*N *2564:3 *C 37.832 10.915
*N *2564:4 *C 37.832 9.878
*N *2564:5 *C 37.819 9.864
*N *2564:6 *C 37.528 9.682
*N *2564:7 *C 37.528 9.851
*N *2564:8 *C 37.528 9.864
*N *2564:9 *C 37.238 9.864
*N *2564:10 *C 37.224 9.851
*N *2564:11 *C 37.224 6.078

*CAP
0 *76:Y 0.001
1 *77:A3 0.001
2 *81:A4 0.001
3 *2564:3 0.09011967
4 *2564:4 0.09155235
5 *2564:5 0.01368455
6 *2564:6 0.01842808
7 *2564:7 0.01225096
8 *2564:8 0.02974132
9 *2564:9 0.01368455
10 *2564:10 0.2184901
11 *2564:11 0.2170574

*RES
0 *76:Y *2564:11 1
1 *2564:4 *2564:3 1.851786
2 *2564:5 *2564:4 0.5
3 *2564:3 *81:A4 1
4 *2564:7 *77:A3 1
5 *2564:7 *2564:6 0.2825
6 *2564:8 *2564:7 0.5
7 *2564:8 *2564:5 0.5187501
8 *2564:10 *2564:9 0.5
9 *2564:9 *2564:8 0.5187501
10 *2564:11 *2564:10 6.7375

*END

*D_NET *2569 3.394349 //LENGTH 44.673 LUMPCC 0 DR

*CONN
*I *85:Y O *L 0 *C 44.672 9.560
*I *79:A1 I *L 0.529859 *C 25.672 34.488
*N *2569:2 *C 25.672 34.487
*N *2569:3 *C 25.672 32.070
*N *2569:4 *C 25.686 32.056
*N *2569:5 *C 26.267 32.056
*N *2569:6 *C 26.280 32.043
*N *2569:7 *C 26.280 25.078
*N *2569:8 *C 26.294 25.064
*N *2569:9 *C 43.899 25.064
*N *2569:10 *C 43.912 25.050
*N *2569:11 *C 43.912 9.878
*N *2569:12 *C 43.925 9.864
*N *2569:13 *C 44.659 9.864
*N *2569:14 *C 44.672 9.851
*N *2569:15 *C 44.672 9.574

*CAP
0 *85:Y 0.001
1 *79:A1 0.001
2 *2569:2 0.1595737
3 *2569:3 0.1610064
4 *2569:4 0.02967789
5 *2569:5 0.02967844
6 *2569:6 0.2822942
7 *2569:7 0.2822948
8 *2569:8 0.5563762
9 *2569:9 0.5563762
10 *2569:10 0.6111225
11 *2569:11 0.611122
12 *2569:12 0.03863079
13 *2569:13 0.03863025
14 *2569:14 0.01849904
15 *2569:15 0.01706636

*RES
0 *85:Y *2569:15 1
1 *2569:2 *79:A1 1
2 *2569:3 *2569:2 4.316964
3 *2569:4 *2569:3 0.5
4 *2569:5 *2569:4 1.0375
5 *2569:6 *2569:5 0.5
6 *2569:7 *2569:6 12.4375
7 *2569:8 *2569:7 0.5
8 *2569:10 *2569:9 0.5
9 *2569:9 *2569:8 31.4375
10 *2569:12 *2569:11 0.5
11 *2569:11 *2569:10 27.09464
12 *2569:14 *2569:13 0.5
13 *2569:13 *2569:12 1.308929
14 *2569:15 *2569:14 0.4946429

*END

*D_NET *2573 0.4905041 //LENGTH 5.152 LUMPCC 0 DR

*CONN
*I *89:Y O *L 0 *C 15.944 44.064
*I *90:A3 I *L 0.557478 *C 15.336 46.648
*I *91:A3 I *L 0.539281 *C 17.160 45.736
*N *2573:3 *C 17.160 45.750
*N *2573:4 *C 17.160 46.027
*N *2573:5 *C 17.146 46.040
*N *2573:6 *C 15.336 46.635
*N *2573:7 *C 15.336 46.053
*N *2573:8 *C 15.350 46.040
*N *2573:9 *C 15.944 46.040
*N *2573:10 *C 15.944 46.027
*N *2573:11 *C 15.944 44.078

*CAP
0 *89:Y 0.001
1 *90:A3 0.001
2 *91:A3 0.001
3 *2573:3 0.01900066
4 *2573:4 0.02043334
5 *2573:5 0.05909555
6 *2573:6 0.03261219
7 *2573:7 0.03404487
8 *2573:8 0.02722671
9 *2573:9 0.08869448
10 *2573:10 0.1039145
11 *2573:11 0.1024818

*RES
0 *89:Y *2573:11 1
1 *2573:4 *2573:3 0.4946429
2 *2573:5 *2573:4 0.5
3 *2573:3 *91:A3 1
4 *2573:10 *2573:9 0.5
5 *2573:9 *2573:8 1.061607
6 *2573:9 *2573:5 2.147322
7 *2573:11 *2573:10 3.480357
8 *2573:7 *2573:6 1.0375
9 *2573:8 *2573:7 0.5
10 *2573:6 *90:A3 1

*END

*D_NET *2575 0.2499599 //LENGTH 2.767 LUMPCC 0 DR

*CONN
*I *94:Y O *L 0 *C 23.544 45.584
*I *95:A5 I *L 0.542358 *C 25.064 46.192
*N *2575:2 *C 25.064 46.178
*N *2575:3 *C 25.064 45.446
*N *2575:4 *C 25.050 45.432
*N *2575:5 *C 23.558 45.432
*N *2575:6 *C 23.544 45.432
*N *2575:7 *C 23.544 45.572

*CAP
0 *94:Y 0.001
1 *95:A5 0.001
2 *2575:2 0.04100749
3 *2575:3 0.04244017
4 *2575:4 0.0719082
5 *2575:5 0.0719082
6 *2575:6 0.01106427
7 *2575:7 0.009631596

*RES
0 *94:Y *2575:7 1
1 *2575:2 *95:A5 1
2 *2575:3 *2575:2 1.308929
3 *2575:4 *2575:3 0.5
4 *2575:6 *2575:5 0.5
5 *2575:5 *2575:4 2.666071
6 *2575:7 *2575:6 0.2325

*END

*D_NET *2577 0.6246002 //LENGTH 6.176 LUMPCC 0 DR

*CONN
*I *92:Y O *L 0 *C 21.568 44.064
*I *95:A1 I *L 0.484201 *C 24.274 46.040
*I *94:A3 I *L 0.557478 *C 22.784 46.648
*N *2577:3 *C 22.784 46.635
*N *2577:4 *C 22.784 46.040
*N *2577:5 *C 23.696 45.908
*N *2577:6 *C 23.696 46.040
*N *2577:7 *C 23.696 46.028
*N *2577:8 *C 23.683 46.040
*N *2577:9 *C 22.950 46.040
*N *2577:10 *C 22.936 46.027
*N *2577:11 *C 22.936 44.534
*N *2577:12 *C 22.922 44.520
*N *2577:13 *C 21.582 44.520
*N *2577:14 *C 21.568 44.507
*N *2577:15 *C 21.568 44.078

*CAP
0 *92:Y 0.001
1 *95:A1 0.04545787
2 *94:A3 0.001
3 *2577:3 0.03691935
4 *2577:4 0.04999723
5 *2577:5 0.01349492
6 *2577:6 0.05159068
7 *2577:7 0.007070459
8 *2577:8 0.03852796
9 *2577:9 0.04050481
10 *2577:10 0.08650846
11 *2577:11 0.07723548
12 *2577:12 0.06580691
13 *2577:13 0.06580691
14 *2577:14 0.02255587
15 *2577:15 0.02112319

*RES
0 *92:Y *2577:15 1
1 *2577:10 *2577:9 0.5
2 *2577:10 *2577:4 0.2714286
3 *2577:9 *2577:8 1.308929
4 *2577:7 *2577:6 1
5 *2577:7 *2577:5 0.1991667
6 *2577:8 *2577:7 0.5
7 *2577:6 *95:A1 1.156
8 *2577:3 *94:A3 1
9 *2577:11 *2577:10 2.666071
10 *2577:12 *2577:11 0.5
11 *2577:14 *2577:13 0.5
12 *2577:13 *2577:12 2.394643
13 *2577:15 *2577:14 0.7660714
14 *2577:4 *2577:3 1.061607

*END

*D_NET *2581 0.2463473 //LENGTH 2.128 LUMPCC 0 DR

*CONN
*I *102:Y O *L 0 *C 23.835 32.208
*I *103:A5 I *L 0.542358 *C 23.696 34.032
*N *2581:2 *C 23.696 34.019
*N *2581:3 *C 23.696 32.221
*N *2581:4 *C 23.709 32.208

*CAP
0 *102:Y 0.01222003
1 *103:A5 0.001
2 *2581:2 0.1106266
3 *2581:3 0.1123561
4 *2581:4 0.01014463

*RES
0 *102:Y *2581:4 0.2116667
1 *2581:2 *103:A5 1
2 *2581:4 *2581:3 1
3 *2581:3 *2581:2 3.208929

*END

*D_NET *2582 1.07307 //LENGTH 8.344 LUMPCC 0 DR

*CONN
*I *101:Y O *L 0 *C 25.824 29.472
*I *102:A3 I *L 0.557478 *C 24.608 33.272
*I *103:A3 I *L 0.539281 *C 23.848 34.488
*N *2582:3 *C 23.848 34.474
*N *2582:4 *C 23.848 32.373
*N *2582:5 *C 23.861 32.360
*N *2582:6 *C 24.608 33.259
*N *2582:7 *C 24.608 32.373
*N *2582:8 *C 24.608 32.360
*N *2582:9 *C 25.811 32.360
*N *2582:10 *C 25.824 32.346
*N *2582:11 *C 25.824 29.486

*CAP
0 *101:Y 0.001
1 *102:A3 0.001
2 *103:A3 0.001
3 *2582:3 0.1880173
4 *2582:4 0.18945
5 *2582:5 0.03795484
6 *2582:6 0.07231404
7 *2582:7 0.07374672
8 *2582:8 0.09912213
9 *2582:9 0.05879507
10 *2582:10 0.1760513
11 *2582:11 0.1746186

*RES
0 *101:Y *2582:11 1
1 *2582:10 *2582:9 0.5
2 *2582:9 *2582:8 2.147322
3 *2582:11 *2582:10 5.108929
4 *2582:7 *2582:6 1.580357
5 *2582:8 *2582:7 0.5
6 *2582:8 *2582:5 1.333036
7 *2582:6 *102:A3 1
8 *2582:4 *2582:3 3.751786
9 *2582:5 *2582:4 0.5
10 *2582:3 *103:A3 1

*END

*D_NET *2585 2.175715 //LENGTH 17.770 LUMPCC 0 DR

*CONN
*I *99:Y O *L 0 *C 23.848 30.536
*I *105:A3 I *L 0.455637 *C 29.320 18.984
*N *2585:2 *C 29.320 18.998
*N *2585:3 *C 29.320 19.883
*N *2585:4 *C 29.306 19.896
*N *2585:5 *C 23.710 19.896
*N *2585:6 *C 23.696 19.910
*N *2585:7 *C 23.696 24.304
*N *2585:8 *C 23.848 24.304
*N *2585:9 *C 23.848 30.523

*CAP
0 *99:Y 0.001
1 *105:A3 0.001
2 *2585:2 0.05478746
3 *2585:3 0.05622014
4 *2585:4 0.2282985
5 *2585:5 0.2282985
6 *2585:6 0.3129377
7 *2585:7 0.3243685
8 *2585:8 0.4908338
9 *2585:9 0.4779704

*RES
0 *99:Y *2585:9 1
1 *2585:2 *105:A3 1
2 *2585:3 *2585:2 1.580357
3 *2585:4 *2585:3 0.5
4 *2585:6 *2585:5 0.5
5 *2585:5 *2585:4 9.994644
6 *2585:9 *2585:8 11.10447
7 *2585:7 *2585:6 7.847322
8 *2585:8 *2585:7 0.2714286

*END

*D_NET *2589 4.14743 //LENGTH 40.718 LUMPCC 0 DR

*CONN
*I *167:Y O *L 0 *C 32.056 27.344
*I *47:A1 I *L 0.514394 *C 22.646 29.168
*I *61:A1 I *L 0.514394 *C 19.136 42.544
*I *59:A1 I *L 0.514394 *C 17.175 42.544
*I *109:A1 I *L 0.514394 *C 19.879 42.544
*I *63:A1 I *L 0.496377 *C 20.352 45.888
*I *106:A1 I *L 0.514394 *C 21.264 34.336
*I *49:A1 I *L 0.514394 *C 19.136 29.168
*I *51:A1 I *L 0.496377 *C 25.368 29.168
*N *2589:9 *C 25.368 29.155
*N *2589:10 *C 19.136 29.169
*N *2589:11 *C 19.136 29.624
*N *2589:12 *C 19.287 29.624
*N *2589:13 *C 19.302 29.624
*N *2589:14 *C 21.264 34.323
*N *2589:15 *C 21.264 33.894
*N *2589:16 *C 21.251 33.880
*N *2589:17 *C 20.352 45.876
*N *2589:18 *C 20.352 45.736
*N *2589:19 *C 20.338 45.736
*N *2589:20 *C 19.605 45.736
*N *2589:21 *C 19.592 45.723
*N *2589:22 *C 19.607 42.544
*N *2589:23 *C 19.592 42.558
*N *2589:24 *C 17.300 42.544
*N *2589:25 *C 17.313 42.544
*N *2589:26 *C 17.464 42.544
*N *2589:27 *C 17.464 42.406
*N *2589:28 *C 17.477 42.392
*N *2589:29 *C 19.136 42.531
*N *2589:30 *C 19.136 42.392
*N *2589:31 *C 19.287 42.392
*N *2589:32 *C 19.288 42.392
*N *2589:33 *C 19.579 42.392
*N *2589:34 *C 19.592 42.366
*N *2589:35 *C 19.592 33.894
*N *2589:36 *C 19.605 33.880
*N *2589:37 *C 19.592 33.867
*N *2589:38 *C 19.592 29.638
*N *2589:39 *C 19.592 29.624
*N *2589:40 *C 19.883 29.624
*N *2589:41 *C 19.896 29.611
*N *2589:42 *C 19.896 29.030
*N *2589:43 *C 19.910 29.016
*N *2589:44 *C 22.771 29.168
*N *2589:45 *C 22.784 29.155
*N *2589:46 *C 22.784 29.016
*N *2589:47 *C 22.784 29.016
*N *2589:48 *C 25.355 29.016
*N *2589:49 *C 25.368 28.990
*N *2589:50 *C 25.368 28.117
*N *2589:51 *C 25.382 28.104
*N *2589:52 *C 32.043 28.104
*N *2589:53 *C 32.056 28.091
*N *2589:54 *C 32.056 27.358

*CAP
0 *167:Y 0.001
1 *47:A1 0.01372823
2 *61:A1 0.001
3 *59:A1 0.01694798
4 *109:A1 0.02744292
5 *63:A1 0.001
6 *106:A1 0.001
7 *49:A1 0.001
8 *51:A1 0.001
9 *2589:9 0.00875695
10 *2589:10 0.0337243
11 *2589:11 0.04688267
12 *2589:12 0.006981255
13 *2589:13 0.01485168
14 *2589:14 0.0272775
15 *2589:15 0.02871018
16 *2589:16 0.07529178
17 *2589:17 0.01295342
18 *2589:18 0.01438609
19 *2589:19 0.03637687
20 *2589:20 0.03637687
21 *2589:21 0.2255583
22 *2589:22 0.02536753
23 *2589:23 0.238465
24 *2589:24 0.01487258
25 *2589:25 0.007645229
26 *2589:26 0.02195561
27 *2589:27 0.009862766
28 *2589:28 0.08860199
29 *2589:29 0.01241004
30 *2589:30 0.02572409
31 *2589:31 0.007136934
32 *2589:32 0.1063114
33 *2589:33 0.01533718
34 *2589:34 0.5924863
35 *2589:35 0.5798764
36 *2589:36 0.07292011
37 *2589:37 0.1625547
38 *2589:38 0.1625547
39 *2589:39 0.03207612
40 *2589:40 0.01485168
41 *2589:41 0.03816326
42 *2589:42 0.03816326
43 *2589:43 0.1248407
44 *2589:44 0.01165283
45 *2589:45 0.01473171
46 *2589:46 0.01443489
47 *2589:47 0.2454092
48 *2589:48 0.1181963
49 *2589:49 0.0738977
50 *2589:50 0.06133586
51 *2589:51 0.25776
52 *2589:52 0.25776
53 *2589:53 0.03463003
54 *2589:54 0.03319735

*RES
0 *167:Y *2589:54 1
1 *2589:9 *51:A1 1
2 *2589:50 *2589:49 1.558036
3 *2589:51 *2589:50 0.5
4 *2589:53 *2589:52 0.5
5 *2589:52 *2589:51 11.89464
6 *2589:54 *2589:53 1.308929
7 *2589:49 *2589:48 0.5
8 *2589:49 *2589:9 0.2758334
9 *2589:48 *2589:47 4.590179
10 *2589:46 *2589:45 0.2325
11 *2589:47 *2589:46 0.5
12 *2589:47 *2589:43 5.133036
13 *2589:44 *47:A1 0.2083333
14 *2589:45 *2589:44 1
15 *2589:15 *2589:14 0.7660714
16 *2589:16 *2589:15 0.5
17 *2589:14 *106:A1 1
18 *2589:42 *2589:41 1.0375
19 *2589:43 *2589:42 0.5
20 *2589:41 *2589:40 0.5
21 *2589:40 *2589:39 0.5187501
22 *2589:21 *2589:20 0.5
23 *2589:20 *2589:19 1.308929
24 *2589:18 *2589:17 0.2325
25 *2589:19 *2589:18 0.5
26 *2589:17 *63:A1 1
27 *2589:22 *109:A1 0.544
28 *2589:23 *2589:22 1
29 *2589:23 *2589:21 5.651786
30 *2589:35 *2589:34 15.12947
31 *2589:36 *2589:35 0.5
32 *2589:36 *2589:16 2.9375
33 *2589:37 *2589:36 0.5
34 *2589:39 *2589:38 0.5
35 *2589:39 *2589:13 0.5187501
36 *2589:38 *2589:37 7.551786
37 *2589:34 *2589:33 0.5
38 *2589:34 *2589:23 0.3191667
39 *2589:33 *2589:32 0.5187501
40 *2589:31 *2589:30 0.2696429
41 *2589:32 *2589:31 0.5
42 *2589:32 *2589:28 3.233036
43 *2589:29 *61:A1 1
44 *2589:12 *2589:11 0.2696429
45 *2589:13 *2589:12 0.5
46 *2589:10 *49:A1 1
47 *2589:27 *2589:26 0.2473214
48 *2589:28 *2589:27 0.5
49 *2589:24 *59:A1 0.2083333
50 *2589:25 *2589:24 1
51 *2589:26 *2589:25 0.2696429
52 *2589:11 *2589:10 0.8125
53 *2589:30 *2589:29 0.2473214

*END

*D_NET *2594 0.726404 //LENGTH 7.103 LUMPCC 0 DR

*CONN
*I *49:Y O *L 0 *C 20.504 28.864
*I *108:A2 I *L 0.537813 *C 19.440 25.976
*I *50:A I *L 0.582888 *C 21.416 25.976
*N *2594:3 *C 21.416 25.963
*N *2594:4 *C 21.416 25.382
*N *2594:5 *C 21.402 25.368
*N *2594:6 *C 19.440 25.963
*N *2594:7 *C 19.440 25.382
*N *2594:8 *C 19.454 25.368
*N *2594:9 *C 20.504 25.368
*N *2594:10 *C 20.504 25.382
*N *2594:11 *C 20.504 28.863

*CAP
0 *49:Y 0.001
1 *108:A2 0.001
2 *50:A 0.001
3 *2594:3 0.03753612
4 *2594:4 0.0389688
5 *2594:5 0.04145123
6 *2594:6 0.03741782
7 *2594:7 0.0388505
8 *2594:8 0.0483918
9 *2594:9 0.09221525
10 *2594:10 0.1950025
11 *2594:11 0.1935699

*RES
0 *49:Y *2594:11 1
1 *2594:4 *2594:3 1.0375
2 *2594:5 *2594:4 0.5
3 *2594:3 *50:A 1
4 *2594:10 *2594:9 0.5
5 *2594:9 *2594:8 1.875893
6 *2594:9 *2594:5 1.604464
7 *2594:11 *2594:10 6.216965
8 *2594:7 *2594:6 1.0375
9 *2594:8 *2594:7 0.5
10 *2594:6 *108:A2 1

*END

*D_NET *2596 1.002506 //LENGTH 10.489 LUMPCC 0 DR

*CONN
*I *109:Y O *L 0 *C 21.264 42.240
*I *110:A5 I *L 0.542358 *C 12.904 44.064
*N *2596:2 *C 12.904 44.050
*N *2596:3 *C 12.904 43.622
*N *2596:4 *C 12.918 43.608
*N *2596:5 *C 21.251 43.608
*N *2596:6 *C 21.264 43.595
*N *2596:7 *C 21.264 42.241

*CAP
0 *109:Y 0.001
1 *110:A5 0.001
2 *2596:2 0.0354126
3 *2596:3 0.03684528
4 *2596:4 0.3910069
5 *2596:5 0.3910069
6 *2596:6 0.07383378
7 *2596:7 0.0724011

*RES
0 *109:Y *2596:7 1
1 *2596:2 *110:A5 1
2 *2596:3 *2596:2 0.7660714
3 *2596:4 *2596:3 0.5
4 *2596:6 *2596:5 0.5
5 *2596:5 *2596:4 14.88036
6 *2596:7 *2596:6 2.416964

*END

*D_NET *2597 0.8001601 //LENGTH 9.418 LUMPCC 0 DR

*CONN
*I *63:Y O *L 0 *C 18.680 45.584
*I *110:A4 I *L 0.514778 *C 13.360 44.368
*I *64:A3 I *L 0.474994 *C 11.384 44.368
*N *2597:3 *C 11.384 44.355
*N *2597:4 *C 11.384 44.216
*N *2597:5 *C 11.398 44.216
*N *2597:6 *C 13.360 44.355
*N *2597:7 *C 13.360 44.216
*N *2597:8 *C 13.360 44.216
*N *2597:9 *C 18.666 44.216
*N *2597:10 *C 18.680 44.230
*N *2597:11 *C 18.680 45.571

*CAP
0 *63:Y 0.001
1 *110:A4 0.001
2 *64:A3 0.001
3 *2597:3 0.009760397
4 *2597:4 0.01119308
5 *2597:5 0.08372047
6 *2597:6 0.01448768
7 *2597:7 0.01592036
8 *2597:8 0.3132576
9 *2597:9 0.2271649
10 *2597:10 0.06154416
11 *2597:11 0.06011148

*RES
0 *63:Y *2597:11 1
1 *2597:10 *2597:9 0.5
2 *2597:9 *2597:8 9.475893
3 *2597:11 *2597:10 2.394643
4 *2597:7 *2597:6 0.2325
5 *2597:8 *2597:7 0.5
6 *2597:8 *2597:5 3.504464
7 *2597:6 *110:A4 1
8 *2597:4 *2597:3 0.2325
9 *2597:5 *2597:4 0.5
10 *2597:3 *64:A3 1

*END

*D_NET *2599 0.8303744 //LENGTH 8.429 LUMPCC 0 DR

*CONN
*I *61:Y O *L 0 *C 17.768 42.240
*I *111:A2 I *L 0.537813 *C 13.056 42.696
*I *62:A I *L 0.582888 *C 14.424 44.216
*N *2599:3 *C 14.424 44.203
*N *2599:4 *C 13.056 42.710
*N *2599:5 *C 13.056 43.291
*N *2599:6 *C 13.070 43.304
*N *2599:7 *C 14.411 43.304
*N *2599:8 *C 14.424 43.318
*N *2599:9 *C 14.424 43.912
*N *2599:10 *C 14.438 43.912
*N *2599:11 *C 17.755 43.912
*N *2599:12 *C 17.768 43.899
*N *2599:13 *C 17.768 42.241

*CAP
0 *61:Y 0.001
1 *111:A2 0.001
2 *62:A 0.001
3 *2599:3 0.01268503
4 *2599:4 0.03770933
5 *2599:5 0.03914201
6 *2599:6 0.07029321
7 *2599:7 0.07029321
8 *2599:8 0.02808133
9 *2599:9 0.04457126
10 *2599:10 0.1669385
11 *2599:11 0.1669385
12 *2599:12 0.09607734
13 *2599:13 0.09464466

*RES
0 *61:Y *2599:13 1
1 *2599:3 *62:A 1
2 *2599:9 *2599:8 1.061607
3 *2599:9 *2599:3 0.51875
4 *2599:10 *2599:9 0.5
5 *2599:12 *2599:11 0.5
6 *2599:11 *2599:10 5.923215
7 *2599:13 *2599:12 2.959822
8 *2599:8 *2599:7 0.5
9 *2599:7 *2599:6 2.394643
10 *2599:5 *2599:4 1.0375
11 *2599:6 *2599:5 0.5
12 *2599:4 *111:A2 1

*END

*D_NET *2601 0.3222392 //LENGTH 3.345 LUMPCC 0 DR

*CONN
*I *112:Y O *L 0 *C 43.608 8.800
*I *113:A5 I *L 0.542358 *C 43.304 6.064
*N *2601:2 *C 43.304 6.078
*N *2601:3 *C 43.304 7.723
*N *2601:4 *C 43.318 7.736
*N *2601:5 *C 43.595 7.736
*N *2601:6 *C 43.608 7.750
*N *2601:7 *C 43.608 8.799

*CAP
0 *112:Y 0.001
1 *113:A5 0.001
2 *2601:2 0.08912391
3 *2601:3 0.09055659
4 *2601:4 0.01752311
5 *2601:5 0.01752311
6 *2601:6 0.0534726
7 *2601:7 0.05203993

*RES
0 *112:Y *2601:7 1
1 *2601:2 *113:A5 1
2 *2601:3 *2601:2 2.9375
3 *2601:4 *2601:3 0.5
4 *2601:6 *2601:5 0.5
5 *2601:5 *2601:4 0.4946429
6 *2601:7 *2601:6 1.874107

*END

*D_NET *2602 0.5940912 //LENGTH 6.478 LUMPCC 0 DR

*CONN
*I *69:Y O *L 0 *C 39.960 7.888
*I *70:A3 I *L 0.474994 *C 41.328 5.760
*I *113:A4 I *L 0.514778 *C 42.848 5.760
*N *2602:3 *C 42.848 5.747
*N *2602:4 *C 42.848 5.317
*N *2602:5 *C 42.835 5.304
*N *2602:6 *C 41.342 5.304
*N *2602:7 *C 41.328 5.317
*N *2602:8 *C 41.328 5.760
*N *2602:9 *C 41.328 6.506
*N *2602:10 *C 41.315 6.520
*N *2602:11 *C 39.974 6.520
*N *2602:12 *C 39.960 6.534
*N *2602:13 *C 39.960 7.875

*CAP
0 *69:Y 0.001
1 *70:A3 0.001
2 *113:A4 0.001
3 *2602:3 0.02496432
4 *2602:4 0.026397
5 *2602:5 0.07682071
6 *2602:6 0.07682071
7 *2602:7 0.02471746
8 *2602:8 0.06777524
9 *2602:9 0.04211824
10 *2602:10 0.0648673
11 *2602:11 0.0648673
12 *2602:12 0.06158782
13 *2602:13 0.06015514

*RES
0 *69:Y *2602:13 1
1 *2602:8 *70:A3 1
2 *2602:8 *2602:7 0.7901786
3 *2602:7 *2602:6 0.5
4 *2602:6 *2602:5 2.666072
5 *2602:4 *2602:3 0.7660714
6 *2602:5 *2602:4 0.5
7 *2602:3 *113:A4 1
8 *2602:9 *2602:8 1.333036
9 *2602:10 *2602:9 0.5
10 *2602:12 *2602:11 0.5
11 *2602:11 *2602:10 2.394643
12 *2602:13 *2602:12 2.394643

*END

*D_NET *2605 0.6978898 //LENGTH 7.482 LUMPCC 0 DR

*CONN
*I *66:Y O *L 0 *C 37.984 6.064
*I *114:A1 I *L 0.601783 *C 38.592 5.760
*I *113:A1 I *L 0.484201 *C 42.514 5.912
*I *70:A1 I *L 0.502229 *C 41.799 5.912
*I *113:A3 I *L 0.539281 *C 43.152 5.608
*N *2605:5 *C 43.152 5.426
*N *2605:6 *C 43.152 5.596
*N *2605:7 *C 43.139 5.608
*N *2605:8 *C 41.799 5.912
*N *2605:9 *C 41.784 5.899
*N *2605:10 *C 41.784 5.622
*N *2605:11 *C 41.784 5.608
*N *2605:12 *C 38.592 5.748
*N *2605:13 *C 38.592 5.608
*N *2605:14 *C 38.592 5.608
*N *2605:15 *C 37.998 5.608
*N *2605:16 *C 37.984 5.622
*N *2605:17 *C 37.984 6.051

*CAP
0 *66:Y 0.001
1 *114:A1 0.001
2 *113:A1 0.05594726
3 *70:A1 0.001
4 *113:A3 0.001
5 *2605:5 0.01507529
6 *2605:6 0.008898178
7 *2605:7 0.06058467
8 *2605:8 0.05214236
9 *2605:9 0.02693759
10 *2605:10 0.02837027
11 *2605:11 0.1960057
12 *2605:12 0.01021588
13 *2605:13 0.01164856
14 *2605:14 0.1600134
15 *2605:15 0.02459231
16 *2605:16 0.0224455
17 *2605:17 0.02101282

*RES
0 *66:Y *2605:17 1
1 *2605:6 *113:A3 1
2 *2605:6 *2605:5 0.2825
3 *2605:7 *2605:6 0.5
4 *2605:10 *2605:9 0.4946429
5 *2605:11 *2605:10 0.5
6 *2605:11 *2605:7 2.41875
7 *2605:9 *2605:8 1
8 *2605:13 *2605:12 0.2325
9 *2605:14 *2605:13 0.5
10 *2605:14 *2605:11 5.700001
11 *2605:12 *114:A1 1
12 *2605:16 *2605:15 0.5
13 *2605:15 *2605:14 1.061607
14 *2605:17 *2605:16 0.7660714
15 *2605:8 *113:A1 1.4306
16 *2605:8 *70:A1 0.001

*END

*D_NET *2608 0.3032259 //LENGTH 2.585 LUMPCC 0 DR

*CONN
*I *115:Y O *L 0 *C 30.536 21.264
*I *116:A5 I *L 0.542358 *C 31.296 22.784
*N *2608:2 *C 31.296 22.771
*N *2608:3 *C 31.296 21.430
*N *2608:4 *C 31.283 21.416
*N *2608:5 *C 30.550 21.416
*N *2608:6 *C 30.536 21.402
*N *2608:7 *C 30.536 21.265

*CAP
0 *115:Y 0.001
1 *116:A5 0.001
2 *2608:2 0.1006787
3 *2608:3 0.1021114
4 *2608:4 0.04039997
5 *2608:5 0.04039997
6 *2608:6 0.00953427
7 *2608:7 0.008101592

*RES
0 *115:Y *2608:7 1
1 *2608:2 *116:A5 1
2 *2608:3 *2608:2 2.394643
3 *2608:4 *2608:3 0.5
4 *2608:6 *2608:5 0.5
5 *2608:5 *2608:4 1.308929
6 *2608:7 *2608:6 0.2455357

*END

*D_NET *2609 0.649622 //LENGTH 6.055 LUMPCC 0 DR

*CONN
*I *57:Y O *L 0 *C 32.664 22.176
*I *116:A4 I *L 0.514778 *C 31.752 22.480
*I *58:A3 I *L 0.474994 *C 32.360 25.824
*N *2609:3 *C 32.360 25.811
*N *2609:4 *C 32.360 25.064
*N *2609:5 *C 32.512 25.064
*N *2609:6 *C 31.752 22.494
*N *2609:7 *C 31.752 23.227
*N *2609:8 *C 31.766 23.240
*N *2609:9 *C 32.498 23.240
*N *2609:10 *C 32.512 23.240
*N *2609:11 *C 32.664 23.240
*N *2609:12 *C 32.664 22.190

*CAP
0 *57:Y 0.001
1 *116:A4 0.001
2 *58:A3 0.001
3 *2609:3 0.0406568
4 *2609:4 0.05335486
5 *2609:5 0.1080227
6 *2609:6 0.05354746
7 *2609:7 0.05498014
8 *2609:8 0.03737357
9 *2609:9 0.03737357
10 *2609:10 0.1057362
11 *2609:11 0.08418026
12 *2609:12 0.07139649

*RES
0 *57:Y *2609:12 1
1 *2609:12 *2609:11 1.875893
2 *2609:3 *58:A3 1
3 *2609:10 *2609:9 0.5
4 *2609:10 *2609:5 3.257143
5 *2609:9 *2609:8 1.308929
6 *2609:7 *2609:6 1.308929
7 *2609:8 *2609:7 0.5
8 *2609:6 *116:A4 1
9 *2609:4 *2609:3 1.333036
10 *2609:5 *2609:4 0.2714286
11 *2609:11 *2609:10 0.2714286

*END

*D_NET *2610 0.8077221 //LENGTH 7.338 LUMPCC 0 DR

*CONN
*I *56:Y O *L 0 *C 31.296 19.440
*I *116:A2 I *L 0.515513 *C 31.904 21.872
*I *58:A2 I *L 0.54421 *C 32.056 25.216
*N *2610:3 *C 32.043 25.216
*N *2610:4 *C 31.904 25.216
*N *2610:5 *C 31.904 21.872
*N *2610:6 *C 31.904 21.720
*N *2610:7 *C 32.056 21.720
*N *2610:8 *C 32.056 19.910
*N *2610:9 *C 32.043 19.896
*N *2610:10 *C 31.309 19.896
*N *2610:11 *C 31.296 19.883
*N *2610:12 *C 31.296 19.454

*CAP
0 *56:Y 0.001
1 *116:A2 0.001
2 *58:A2 0.001
3 *2610:3 0.006705704
4 *2610:4 0.1944135
5 *2610:5 0.1918012
6 *2610:6 0.0209467
7 *2610:7 0.1206152
8 *2610:8 0.1089995
9 *2610:9 0.03840535
10 *2610:10 0.03840535
11 *2610:11 0.04293107
12 *2610:12 0.04149839

*RES
0 *56:Y *2610:12 1
1 *2610:3 *58:A2 1
2 *2610:5 *116:A2 1
3 *2610:5 *2610:4 5.971429
4 *2610:8 *2610:7 3.233036
5 *2610:9 *2610:8 0.5
6 *2610:11 *2610:10 0.5
7 *2610:10 *2610:9 1.308929
8 *2610:12 *2610:11 0.7660714
9 *2610:6 *2610:5 0.2714286
10 *2610:4 *2610:3 0.2473214
11 *2610:7 *2610:6 0.2714286

*END

*D_NET *2611 1.023764 //LENGTH 9.276 LUMPCC 0 DR

*CONN
*I *55:Y O *L 0 *C 29.776 16.552
*I *117:A2 I *L 0.537813 *C 29.472 12.628
*I *56:A I *L 0.582888 *C 30.962 19.288
*N *2611:3 *C 29.776 16.370
*N *2611:4 *C 30.247 19.288
*N *2611:5 *C 30.232 19.274
*N *2611:6 *C 30.232 16.566
*N *2611:7 *C 30.219 16.552
*N *2611:8 *C 29.333 12.600
*N *2611:9 *C 29.320 12.614
*N *2611:10 *C 29.320 15.944
*N *2611:11 *C 29.472 15.944
*N *2611:12 *C 29.472 16.538
*N *2611:13 *C 29.486 16.552
*N *2611:14 *C 29.776 16.552
*N *2611:15 *C 29.776 16.540

*CAP
0 *55:Y 0.001
1 *117:A2 0.02021803
2 *56:A 0.04679858
3 *2611:3 0.0195457
4 *2611:4 0.04472318
5 *2611:5 0.1745965
6 *2611:6 0.1742997
7 *2611:7 0.02242955
8 *2611:8 0.01814264
9 *2611:9 0.1650395
10 *2611:10 0.1760304
11 *2611:11 0.05147497
12 *2611:12 0.0401873
13 *2611:13 0.01505212
14 *2611:14 0.03985389
15 *2611:15 0.01437169

*RES
0 *55:Y *2611:15 1
1 *2611:6 *2611:5 4.837501
2 *2611:7 *2611:6 0.5
3 *2611:4 *56:A 1.43
4 *2611:5 *2611:4 1
5 *2611:15 *2611:14 0.5
6 *2611:15 *2611:3 0.2825
7 *2611:14 *2611:13 0.5187501
8 *2611:14 *2611:7 0.7901786
9 *2611:12 *2611:11 1.061607
10 *2611:13 *2611:12 0.5
11 *2611:8 *117:A2 0.2325
12 *2611:9 *2611:8 1
13 *2611:10 *2611:9 5.947322
14 *2611:11 *2611:10 0.2714286

*END

*D_NET *2613 4.348591 //LENGTH 53.938 LUMPCC 0 DR

*CONN
*I *394:Q O *L 0 *C 13.512 25.672
*I *348:A2 I *L 0.501039 *C 14.424 42.392
*I *59:A2 I *L 0.52073 *C 17.008 42.848
*I *327:A6 I *L 0.609639 *C 27.192 43.152
*I *379:A4 I *L 0.569168 *C 20.504 22.784
*I *380:A2 I *L 0.501039 *C 23.544 15.640
*N *2613:6 *C 13.512 25.490
*N *2613:7 *C 23.544 15.458
*N *2613:8 *C 23.544 15.628
*N *2613:9 *C 23.530 15.640
*N *2613:10 *C 20.518 15.640
*N *2613:11 *C 20.504 15.654
*N *2613:12 *C 20.504 22.758
*N *2613:13 *C 20.504 22.924
*N *2613:14 *C 20.491 22.936
*N *2613:15 *C 19.302 22.936
*N *2613:16 *C 19.288 22.950
*N *2613:17 *C 19.288 25.659
*N *2613:18 *C 19.274 25.672
*N *2613:19 *C 27.192 43.166
*N *2613:20 *C 27.192 43.607
*N *2613:21 *C 27.191 43.608
*N *2613:22 *C 21.733 43.608
*N *2613:23 *C 21.720 43.595
*N *2613:24 *C 21.720 43.318
*N *2613:25 *C 21.707 43.304
*N *2613:26 *C 17.174 43.304
*N *2613:27 *C 17.160 43.291
*N *2613:28 *C 17.160 42.406
*N *2613:29 *C 17.148 42.392
*N *2613:30 *C 17.008 42.835
*N *2613:31 *C 17.008 42.406
*N *2613:32 *C 17.021 42.392
*N *2613:33 *C 14.424 42.210
*N *2613:34 *C 14.424 42.380
*N *2613:35 *C 14.438 42.392
*N *2613:36 *C 14.424 42.379
*N *2613:37 *C 14.424 25.686
*N *2613:38 *C 14.424 25.672
*N *2613:39 *C 13.526 25.672
*N *2613:40 *C 13.512 25.660

*CAP
0 *394:Q 0.001
1 *348:A2 0.001
2 *59:A2 0.001
3 *327:A6 0.001
4 *379:A4 0.001
5 *380:A2 0.001
6 *2613:6 0.01181359
7 *2613:7 0.01957737
8 *2613:8 0.01340026
9 *2613:9 0.1220728
10 *2613:10 0.1220728
11 *2613:11 0.3350267
12 *2613:12 0.3442522
13 *2613:13 0.008285942
14 *2613:14 0.06315393
15 *2613:15 0.06315447
16 *2613:16 0.1092
17 *2613:17 0.1092
18 *2613:18 0.1892227
19 *2613:19 0.03331006
20 *2613:20 0.03474274
21 *2613:21 0.2462112
22 *2613:22 0.2462118
23 *2613:23 0.01327372
24 *2613:24 0.01327425
25 *2613:25 0.1547971
26 *2613:26 0.1547971
27 *2613:27 0.04113392
28 *2613:28 0.0411334
29 *2613:29 0.01040529
30 *2613:30 0.03745996
31 *2613:31 0.03889264
32 *2613:32 0.1403462
33 *2613:33 0.02192127
34 *2613:34 0.01574415
35 *2613:35 0.1251975
36 *2613:36 0.601015
37 *2613:37 0.601015
38 *2613:38 0.2236173
39 *2613:39 0.03202243
40 *2613:40 0.005636473

*RES
0 *394:Q *2613:40 1
1 *2613:12 *379:A4 1
2 *2613:12 *2613:11 12.68661
3 *2613:11 *2613:10 0.5
4 *2613:10 *2613:9 5.380358
5 *2613:8 *380:A2 1
6 *2613:8 *2613:7 0.2825
7 *2613:9 *2613:8 0.5
8 *2613:29 *2613:28 0.5
9 *2613:28 *2613:27 1.580357
10 *2613:27 *2613:26 0.5
11 *2613:26 *2613:25 8.094644
12 *2613:24 *2613:23 0.4946429
13 *2613:25 *2613:24 0.5
14 *2613:22 *2613:21 9.745537
15 *2613:23 *2613:22 0.5
16 *2613:20 *2613:19 0.7883929
17 *2613:21 *2613:20 0.5
18 *2613:19 *327:A6 1
19 *2613:31 *2613:30 0.7660714
20 *2613:32 *2613:31 0.5
21 *2613:32 *2613:29 0.2116667
22 *2613:30 *59:A2 1
23 *2613:13 *2613:12 0.2758334
24 *2613:14 *2613:13 0.5
25 *2613:15 *2613:14 2.123214
26 *2613:16 *2613:15 0.5
27 *2613:18 *2613:17 0.5
28 *2613:17 *2613:16 4.8375
29 *2613:34 *348:A2 1
30 *2613:34 *2613:33 0.2825
31 *2613:35 *2613:34 0.5
32 *2613:35 *2613:32 4.6125
33 *2613:36 *2613:35 0.5
34 *2613:38 *2613:37 0.5
35 *2613:38 *2613:18 8.661608
36 *2613:37 *2613:36 29.80893
37 *2613:40 *2613:39 0.5
38 *2613:40 *2613:6 0.2825
39 *2613:39 *2613:38 1.604464

*END

*D_NET *2616 4.655793 //LENGTH 44.508 LUMPCC 0 DR

*CONN
*I *397:Q O *L 0 *C 16.400 14.424
*I *392:A2 I *L 0.501039 *C 17.464 12.296
*I *391:A4 I *L 0.569168 *C 17.616 16.096
*I *109:A2 I *L 0.52073 *C 20.048 42.848
*I *317:A2 I *L 0.466516 *C 23.367 42.721
*I *351:A2 I *L 0.501039 *C 20.048 34.488
*N *2616:6 *C 20.048 34.306
*N *2616:7 *C 20.048 34.476
*N *2616:8 *C 20.035 34.488
*N *2616:9 *C 23.103 42.696
*N *2616:10 *C 23.088 42.683
*N *2616:11 *C 23.088 41.797
*N *2616:12 *C 23.075 41.784
*N *2616:13 *C 20.048 42.835
*N *2616:14 *C 20.048 41.797
*N *2616:15 *C 20.048 41.784
*N *2616:16 *C 19.302 41.784
*N *2616:17 *C 19.288 41.771
*N *2616:18 *C 19.288 34.502
*N *2616:19 *C 19.288 34.488
*N *2616:20 *C 16.413 34.488
*N *2616:21 *C 16.400 34.474
*N *2616:22 *C 16.400 26.736
*N *2616:23 *C 16.248 26.736
*N *2616:24 *C 16.248 18.832
*N *2616:25 *C 16.400 18.832
*N *2616:26 *C 17.616 16.082
*N *2616:27 *C 17.616 13.816
*N *2616:28 *C 17.464 12.297
*N *2616:29 *C 17.464 13.816
*N *2616:30 *C 17.451 13.816
*N *2616:31 *C 16.413 13.816
*N *2616:32 *C 16.400 13.830
*N *2616:33 *C 16.400 14.424

*CAP
0 *397:Q 0.001
1 *392:A2 0.001
2 *391:A4 0.001
3 *109:A2 0.001
4 *317:A2 0.02170578
5 *351:A2 0.001
6 *2616:6 0.01983054
7 *2616:7 0.01365342
8 *2616:8 0.0330894
9 *2616:9 0.01963038
10 *2616:10 0.04870169
11 *2616:11 0.04840487
12 *2616:12 0.1643873
13 *2616:13 0.07282698
14 *2616:14 0.07425966
15 *2616:15 0.2104398
16 *2616:16 0.04368022
17 *2616:17 0.4996037
18 *2616:18 0.4996037
19 *2616:19 0.1457379
20 *2616:20 0.1102763
21 *2616:21 0.3474435
22 *2616:22 0.3588219
23 *2616:23 0.3988252
24 *2616:24 0.3983951
25 *2616:25 0.2130126
26 *2616:26 0.1773369
27 *2616:27 0.1896186
28 *2616:28 0.09637162
29 *2616:29 0.1062811
30 *2616:30 0.04344365
31 *2616:31 0.04344365
32 *2616:32 0.0244818
33 *2616:33 0.2274857

*RES
0 *397:Q *2616:33 1
1 *2616:11 *2616:10 1.580357
2 *2616:12 *2616:11 0.5
3 *2616:9 *317:A2 0.5280001
4 *2616:10 *2616:9 1
5 *2616:14 *2616:13 1.851786
6 *2616:15 *2616:14 0.5
7 *2616:15 *2616:12 5.404465
8 *2616:13 *109:A2 1
9 *2616:7 *351:A2 1
10 *2616:7 *2616:6 0.2825
11 *2616:8 *2616:7 0.5
12 *2616:17 *2616:16 0.5
13 *2616:16 *2616:15 1.333036
14 *2616:18 *2616:17 12.98036
15 *2616:19 *2616:18 0.5
16 *2616:19 *2616:8 1.333036
17 *2616:26 *391:A4 1
18 *2616:28 *392:A2 1
19 *2616:33 *2616:32 1.061607
20 *2616:33 *2616:25 7.871428
21 *2616:29 *2616:28 2.7125
22 *2616:29 *2616:27 0.2714286
23 *2616:30 *2616:29 0.5
24 *2616:32 *2616:31 0.5
25 *2616:31 *2616:30 1.851786
26 *2616:21 *2616:20 0.5
27 *2616:20 *2616:19 5.133036
28 *2616:24 *2616:23 14.11429
29 *2616:25 *2616:24 0.2714286
30 *2616:23 *2616:22 0.2714286
31 *2616:22 *2616:21 13.81875
32 *2616:27 *2616:26 4.047322

*END

*D_NET *2620 4.363998 //LENGTH 38.151 LUMPCC 0 DR

*CONN
*I *409:Q O *L 0 *C 22.176 14.424
*I *391:A2 I *L 0.501039 *C 17.464 15.640
*I *390:A4 I *L 0.569168 *C 23.544 13.968
*I *355:A2 I *L 0.501039 *C 20.048 32.360
*I *505:A6 I *L 0.609639 *C 27.192 33.728
*I *106:A2 I *L 0.52073 *C 21.515 34.032
*N *2620:6 *C 21.568 34.032
*N *2620:7 *C 21.568 34.019
*N *2620:8 *C 27.192 33.727
*N *2620:9 *C 27.192 33.273
*N *2620:10 *C 27.191 33.272
*N *2620:11 *C 20.048 32.373
*N *2620:12 *C 20.048 33.259
*N *2620:13 *C 20.062 33.272
*N *2620:14 *C 21.568 33.272
*N *2620:15 *C 21.568 33.272
*N *2620:16 *C 21.568 29.016
*N *2620:17 *C 22.328 29.016
*N *2620:18 *C 22.328 14.424
*N *2620:19 *C 23.544 13.968
*N *2620:20 *C 23.544 14.107
*N *2620:21 *C 23.530 14.120
*N *2620:22 *C 17.464 15.627
*N *2620:23 *C 17.464 14.134
*N *2620:24 *C 17.477 14.120
*N *2620:25 *C 22.176 14.120
*N *2620:26 *C 22.176 14.134
*N *2620:27 *C 22.176 14.424

*CAP
0 *409:Q 0.001
1 *391:A2 0.001
2 *390:A4 0.001
3 *355:A2 0.001
4 *505:A6 0.001
5 *106:A2 0.009650878
6 *2620:6 0.007575479
7 *2620:7 0.04867961
8 *2620:8 0.03140592
9 *2620:9 0.0328386
10 *2620:10 0.273057
11 *2620:11 0.06322181
12 *2620:12 0.06465449
13 *2620:13 0.07680055
14 *2620:14 0.3522298
15 *2620:15 0.3790319
16 *2620:16 0.3673226
17 *2620:17 0.9375553
18 *2620:18 0.9102395
19 *2620:19 0.01108677
20 *2620:20 0.01251945
21 *2620:21 0.06422235
22 *2620:22 0.09595454
23 *2620:23 0.09738722
24 *2620:24 0.2057143
25 *2620:25 0.2723088
26 *2620:26 0.01880763
27 *2620:27 0.02673254

*RES
0 *409:Q *2620:27 1
1 *2620:20 *2620:19 0.2325
2 *2620:21 *2620:20 0.5
3 *2620:19 *390:A4 1
4 *2620:27 *2620:26 0.5187501
5 *2620:27 *2620:18 0.2714286
6 *2620:26 *2620:25 0.5
7 *2620:25 *2620:24 8.390179
8 *2620:25 *2620:21 2.41875
9 *2620:9 *2620:8 0.8107143
10 *2620:10 *2620:9 0.5
11 *2620:8 *505:A6 1
12 *2620:15 *2620:14 0.5
13 *2620:15 *2620:7 1.333036
14 *2620:14 *2620:13 2.690179
15 *2620:14 *2620:10 10.04107
16 *2620:6 *106:A2 0.09166668
17 *2620:7 *2620:6 1
18 *2620:12 *2620:11 1.580357
19 *2620:13 *2620:12 0.5
20 *2620:11 *355:A2 1
21 *2620:23 *2620:22 2.666071
22 *2620:24 *2620:23 0.5
23 *2620:22 *391:A2 1
24 *2620:16 *2620:15 7.6
25 *2620:17 *2620:16 1.357143
26 *2620:18 *2620:17 26.05714

*END

*D_NET *2625 3.08984 //LENGTH 31.205 LUMPCC 0 DR

*CONN
*I *402:Q O *L 0 *C 22.784 11.080
*I *381:A2 I *L 0.501039 *C 23.088 12.296
*I *380:A4 I *L 0.569168 *C 23.684 16.096
*I *65:A2 I *L 0.52073 *C 36.920 7.280
*I *344:A2 I *L 0.501039 *C 35.096 5.608
*I *508:A4 I *L 0.554348 *C 39.656 11.080
*N *2625:6 *C 22.784 10.898
*N *2625:7 *C 39.656 10.898
*N *2625:8 *C 39.656 11.068
*N *2625:9 *C 39.643 11.080
*N *2625:10 *C 35.096 5.622
*N *2625:11 *C 35.096 6.506
*N *2625:12 *C 35.110 6.520
*N *2625:13 *C 36.755 6.520
*N *2625:14 *C 36.768 6.534
*N *2625:15 *C 36.768 7.128
*N *2625:16 *C 36.920 7.128
*N *2625:17 *C 36.920 7.280
*N *2625:18 *C 36.920 11.067
*N *2625:19 *C 36.920 11.080
*N *2625:20 *C 23.556 16.096
*N *2625:21 *C 23.544 16.084
*N *2625:22 *C 23.544 15.944
*N *2625:23 *C 23.530 15.944
*N *2625:24 *C 23.102 15.944
*N *2625:25 *C 23.088 15.931
*N *2625:26 *C 23.088 12.296
*N *2625:27 *C 23.088 11.094
*N *2625:28 *C 23.088 11.080
*N *2625:29 *C 22.797 11.080
*N *2625:30 *C 22.784 11.068

*CAP
0 *402:Q 0.001
1 *381:A2 0.001
2 *380:A4 0.01461991
3 *65:A2 0.001
4 *344:A2 0.001
5 *508:A4 0.001
6 *2625:6 0.01351093
7 *2625:7 0.01638086
8 *2625:8 0.01020375
9 *2625:9 0.1189193
10 *2625:10 0.05180113
11 *2625:11 0.05323381
12 *2625:12 0.07627303
13 *2625:13 0.07627303
14 *2625:14 0.0466895
15 *2625:15 0.05798268
16 *2625:16 0.02149223
17 *2625:17 0.2458778
18 *2625:18 0.2347392
19 *2625:19 0.728586
20 *2625:20 0.01254452
21 *2625:21 0.01652907
22 *2625:22 0.01623225
23 *2625:23 0.02311168
24 *2625:24 0.02311168
25 *2625:25 0.2292643
26 *2625:26 0.2935535
27 *2625:27 0.06334965
28 *2625:28 0.6214463
29 *2625:29 0.01177965
30 *2625:30 0.007333817

*RES
0 *402:Q *2625:30 1
1 *2625:8 *508:A4 1
2 *2625:8 *2625:7 0.2825
3 *2625:9 *2625:8 0.5
4 *2625:18 *2625:17 6.761608
5 *2625:19 *2625:18 0.5
6 *2625:19 *2625:9 4.861607
7 *2625:17 *65:A2 1
8 *2625:17 *2625:16 0.2714286
9 *2625:14 *2625:13 0.5
10 *2625:13 *2625:12 2.9375
11 *2625:11 *2625:10 1.580357
12 *2625:12 *2625:11 0.5
13 *2625:10 *344:A2 1
14 *2625:25 *2625:24 0.5
15 *2625:24 *2625:23 0.7660714
16 *2625:22 *2625:21 0.2325
17 *2625:23 *2625:22 0.5
18 *2625:20 *380:A4 0.2116667
19 *2625:21 *2625:20 1
20 *2625:26 *381:A2 1
21 *2625:26 *2625:25 6.490179
22 *2625:27 *2625:26 2.147322
23 *2625:28 *2625:27 0.5
24 *2625:28 *2625:19 24.7
25 *2625:30 *2625:29 0.5
26 *2625:30 *2625:6 0.2825
27 *2625:29 *2625:28 0.5187501
28 *2625:15 *2625:14 1.061607
29 *2625:16 *2625:15 0.2714286

*END

*D_NET *2628 3.409433 //LENGTH 38.631 LUMPCC 0 DR

*CONN
*I *405:Q O *L 0 *C 22.176 11.080
*I *393:A2 I *L 0.501039 *C 17.464 11.080
*I *392:A4 I *L 0.569168 *C 17.616 12.752
*I *112:A2 I *L 0.52073 *C 42.392 9.408
*I *202:A2 I *L 0.538095 *C 45.888 13.968
*I *347:A2 I *L 0.501039 *C 25.064 8.952
*N *2628:6 *C 25.064 8.966
*N *2628:7 *C 45.888 13.967
*N *2628:8 *C 45.888 13.830
*N *2628:9 *C 45.876 13.816
*N *2628:10 *C 45.736 13.816
*N *2628:11 *C 45.736 13.803
*N *2628:12 *C 45.736 9.574
*N *2628:13 *C 45.723 9.560
*N *2628:14 *C 42.392 9.408
*N *2628:15 *C 42.392 9.548
*N *2628:16 *C 42.392 9.560
*N *2628:17 *C 25.078 9.560
*N *2628:18 *C 25.064 9.560
*N *2628:19 *C 25.064 10.459
*N *2628:20 *C 25.050 10.472
*N *2628:21 *C 17.616 12.739
*N *2628:22 *C 17.616 11.232
*N *2628:23 *C 17.464 11.232
*N *2628:24 *C 17.464 11.080
*N *2628:25 *C 17.464 10.486
*N *2628:26 *C 17.477 10.472
*N *2628:27 *C 22.176 10.472
*N *2628:28 *C 22.176 10.486
*N *2628:29 *C 22.176 11.067

*CAP
0 *405:Q 0.001
1 *393:A2 0.001
2 *392:A4 0.001
3 *112:A2 0.001
4 *202:A2 0.001
5 *347:A2 0.001
6 *2628:6 0.03899854
7 *2628:7 0.01523249
8 *2628:8 0.01666517
9 *2628:9 0.010978
10 *2628:10 0.01097855
11 *2628:11 0.1520791
12 *2628:12 0.1520791
13 *2628:13 0.139928
14 *2628:14 0.01032625
15 *2628:15 0.01175892
16 *2628:16 0.9335051
17 *2628:17 0.7912055
18 *2628:18 0.08785723
19 *2628:19 0.04505379
20 *2628:20 0.1177748
21 *2628:21 0.08632337
22 *2628:22 0.09872977
23 *2628:23 0.0212087
24 *2628:24 0.052024
25 *2628:25 0.04084948
26 *2628:26 0.1839789
27 *2628:27 0.3041259
28 *2628:28 0.04160243
29 *2628:29 0.04016975

*RES
0 *405:Q *2628:29 1
1 *2628:13 *2628:12 0.5
2 *2628:12 *2628:11 7.551786
3 *2628:10 *2628:9 0.2325
4 *2628:11 *2628:10 0.5
5 *2628:8 *2628:7 0.2455357
6 *2628:9 *2628:8 0.5
7 *2628:7 *202:A2 1
8 *2628:15 *2628:14 0.2325
9 *2628:16 *2628:15 0.5
10 *2628:16 *2628:13 5.947322
11 *2628:14 *112:A2 1
12 *2628:18 *2628:17 0.5
13 *2628:18 *2628:6 1.061607
14 *2628:17 *2628:16 30.91875
15 *2628:6 *347:A2 1
16 *2628:19 *2628:18 1.604464
17 *2628:20 *2628:19 0.5
18 *2628:28 *2628:27 0.5
19 *2628:27 *2628:26 8.390179
20 *2628:27 *2628:20 5.133036
21 *2628:29 *2628:28 1.0375
22 *2628:21 *392:A4 1
23 *2628:24 *393:A2 1
24 *2628:24 *2628:23 0.2714286
25 *2628:25 *2628:24 1.061607
26 *2628:26 *2628:25 0.5
27 *2628:23 *2628:22 0.2714286
28 *2628:22 *2628:21 2.690179

*END

*D_NET *2632 2.28056 //LENGTH 23.493 LUMPCC 0 DR

*CONN
*I *240:Q O *L 0 *C 27.496 39.048
*I *324:A2 I *L 0.516516 *C 24.820 44.976
*I *95:A2 I *L 0.515513 *C 24.456 45.280
*I *94:A4 I *L 0.566007 *C 22.632 46.192
*I *109:A4 I *L 0.552216 *C 20.168 42.392
*I *322:A2 I *L 0.515513 *C 29.168 45.280
*I *316:A1 I *L 0.501685 *C 29.776 44.216
*N *2632:7 *C 27.314 39.656
*N *2632:8 *C 29.776 44.034
*N *2632:9 *C 29.776 44.204
*N *2632:10 *C 29.763 44.216
*N *2632:11 *C 29.168 45.267
*N *2632:12 *C 29.168 44.230
*N *2632:13 *C 29.168 44.216
*N *2632:14 *C 19.759 42.392
*N *2632:15 *C 19.744 42.406
*N *2632:16 *C 19.744 43.899
*N *2632:17 *C 19.758 43.912
*N *2632:18 *C 22.632 43.912
*N *2632:19 *C 22.632 46.178
*N *2632:20 *C 22.632 44.230
*N *2632:21 *C 22.632 44.216
*N *2632:22 *C 24.456 45.267
*N *2632:23 *C 24.456 44.976
*N *2632:24 *C 24.623 44.976
*N *2632:25 *C 24.608 44.963
*N *2632:26 *C 24.608 44.230
*N *2632:27 *C 24.608 44.216
*N *2632:28 *C 27.496 44.216
*N *2632:29 *C 27.496 44.203
*N *2632:30 *C 27.496 39.669
*N *2632:31 *C 27.484 39.656
*N *2632:32 *C 27.496 39.643
*N *2632:33 *C 27.496 39.062

*CAP
0 *240:Q 0.001
1 *324:A2 0.02110744
2 *95:A2 0.001
3 *94:A4 0.001
4 *109:A4 0.03334022
5 *322:A2 0.001
6 *316:A1 0.001
7 *2632:7 0.01155708
8 *2632:8 0.01951734
9 *2632:9 0.01334022
10 *2632:10 0.0288086
11 *2632:11 0.06246823
12 *2632:12 0.06390091
13 *2632:13 0.1076312
14 *2632:14 0.03126482
15 *2632:15 0.1162181
16 *2632:16 0.1159213
17 *2632:17 0.1290629
18 *2632:18 0.143006
19 *2632:19 0.1148026
20 *2632:20 0.1162353
21 *2632:21 0.09964265
22 *2632:22 0.01959788
23 *2632:23 0.03281699
24 *2632:24 0.01903205
25 *2632:25 0.05400958
26 *2632:26 0.04429855
27 *2632:27 0.2267326
28 *2632:28 0.2151118
29 *2632:29 0.1713871
30 *2632:30 0.1713871
31 *2632:31 0.006813192
32 *2632:32 0.04399061
33 *2632:33 0.04255793

*RES
0 *240:Q *2632:33 1
1 *2632:9 *316:A1 1
2 *2632:9 *2632:8 0.2825
3 *2632:10 *2632:9 0.5
4 *2632:12 *2632:11 1.851786
5 *2632:13 *2632:12 0.5
6 *2632:13 *2632:10 1.061607
7 *2632:11 *322:A2 1
8 *2632:28 *2632:27 5.157143
9 *2632:28 *2632:13 2.985714
10 *2632:29 *2632:28 0.5
11 *2632:31 *2632:30 0.5
12 *2632:31 *2632:7 0.2825
13 *2632:30 *2632:29 8.094644
14 *2632:32 *2632:31 0.5
15 *2632:33 *2632:32 1.0375
16 *2632:24 *324:A2 0.3940001
17 *2632:25 *2632:24 1
18 *2632:25 *2632:23 0.2714286
19 *2632:26 *2632:25 1.308929
20 *2632:27 *2632:26 0.5
21 *2632:27 *2632:21 3.528572
22 *2632:22 *95:A2 1
23 *2632:20 *2632:19 3.480357
24 *2632:21 *2632:20 0.5
25 *2632:21 *2632:18 0.5428572
26 *2632:19 *94:A4 1
27 *2632:16 *2632:15 2.666071
28 *2632:17 *2632:16 0.5
29 *2632:14 *109:A4 0.8180001
30 *2632:15 *2632:14 1
31 *2632:23 *2632:22 0.5187501
32 *2632:18 *2632:17 5.133036

*END

*D_NET *2635 3.047996 //LENGTH 27.116 LUMPCC 0 DR

*CONN
*I *237:Q O *L 0 *C 36.160 37.832
*I *283:A2 I *L 0.515513 *C 35.096 31.904
*I *278:A1 I *L 0.666174 *C 32.056 35.856
*I *102:A4 I *L 0.566007 *C 24.760 32.816
*I *51:A6 I *L 0.558565 *C 24.456 29.624
*I *103:A4 I *L 0.514778 *C 24.152 34.336
*I *277:A6 I *L 0.609639 *C 29.776 33.728
*N *2635:7 *C 29.776 33.729
*N *2635:8 *C 24.152 34.323
*N *2635:9 *C 24.456 29.638
*N *2635:10 *C 24.456 30.536
*N *2635:11 *C 24.152 30.536
*N *2635:12 *C 24.152 33.880
*N *2635:13 *C 24.166 33.880
*N *2635:14 *C 24.760 32.830
*N *2635:15 *C 24.760 33.867
*N *2635:16 *C 24.760 33.880
*N *2635:17 *C 29.763 33.880
*N *2635:18 *C 29.776 33.880
*N *2635:19 *C 29.776 35.691
*N *2635:20 *C 29.790 35.704
*N *2635:21 *C 32.056 35.843
*N *2635:22 *C 32.056 35.704
*N *2635:23 *C 32.056 35.704
*N *2635:24 *C 35.096 31.918
*N *2635:25 *C 35.096 35.691
*N *2635:26 *C 35.096 35.704
*N *2635:27 *C 36.147 35.704
*N *2635:28 *C 36.160 35.718
*N *2635:29 *C 36.160 37.819

*CAP
0 *237:Q 0.001
1 *283:A2 0.001
2 *278:A1 0.001
3 *102:A4 0.001
4 *51:A6 0.001
5 *103:A4 0.001
6 *277:A6 0.001
7 *2635:7 0.007897658
8 *2635:8 0.0374179
9 *2635:9 0.04938339
10 *2635:10 0.06931648
11 *2635:11 0.2789167
12 *2635:12 0.3016391
13 *2635:13 0.0279143
14 *2635:14 0.07968184
15 *2635:15 0.08111452
16 *2635:16 0.256053
17 *2635:17 0.2257665
18 *2635:18 0.1240636
19 *2635:19 0.1123611
20 *2635:20 0.116043
21 *2635:21 0.01240391
22 *2635:22 0.01383659
23 *2635:23 0.2695228
24 *2635:24 0.2007539
25 *2635:25 0.2021866
26 *2635:26 0.2020929
27 *2635:27 0.04861314
28 *2635:28 0.1627248
29 *2635:29 0.1612922

*RES
0 *237:Q *2635:29 1
1 *2635:28 *2635:27 0.5
2 *2635:27 *2635:26 1.875893
3 *2635:29 *2635:28 3.751786
4 *2635:25 *2635:24 6.7375
5 *2635:26 *2635:25 0.5
6 *2635:26 *2635:23 5.428572
7 *2635:24 *283:A2 1
8 *2635:22 *2635:21 0.2325
9 *2635:23 *2635:22 0.5
10 *2635:23 *2635:20 4.047322
11 *2635:21 *278:A1 1
12 *2635:19 *2635:18 3.233036
13 *2635:20 *2635:19 0.5
14 *2635:7 *277:A6 1
15 *2635:18 *2635:17 0.5
16 *2635:18 *2635:7 0.2696429
17 *2635:17 *2635:16 8.933037
18 *2635:15 *2635:14 1.851786
19 *2635:16 *2635:15 0.5
20 *2635:16 *2635:13 1.061607
21 *2635:14 *102:A4 1
22 *2635:9 *51:A6 1
23 *2635:8 *103:A4 1
24 *2635:12 *2635:11 5.971429
25 *2635:12 *2635:8 0.7901786
26 *2635:13 *2635:12 0.5
27 *2635:11 *2635:10 0.5428572
28 *2635:10 *2635:9 1.604464

*END

*D_NET *2639 2.607867 //LENGTH 24.469 LUMPCC 0 DR

*CONN
*I *249:Q O *L 0 *C 35.096 24.456
*I *57:A6 I *L 0.558565 *C 33.424 22.936
*I *73:A2 I *L 0.504426 *C 33.424 21.112
*I *255:A3 I *L 0.455637 *C 39.352 18.984
*I *328:A5 I *L 0.583269 *C 40.112 24.152
*I *287:A2 I *L 0.509119 *C 41.632 24.456
*I *291:A1 I *L 0.526361 *C 42.544 22.632
*I *86:A3 I *L 0.539281 *C 33.576 18.984
*N *2639:8 *C 33.576 18.998
*N *2639:9 *C 42.544 22.646
*N *2639:10 *C 42.544 24.139
*N *2639:11 *C 42.531 24.152
*N *2639:12 *C 41.632 24.443
*N *2639:13 *C 41.632 24.166
*N *2639:14 *C 41.632 24.152
*N *2639:15 *C 40.112 24.020
*N *2639:16 *C 40.112 24.140
*N *2639:17 *C 40.112 24.152
*N *2639:18 *C 39.366 24.152
*N *2639:19 *C 39.352 24.139
*N *2639:20 *C 39.352 18.998
*N *2639:21 *C 39.352 19.288
*N *2639:22 *C 39.339 19.288
*N *2639:23 *C 33.590 19.288
*N *2639:24 *C 33.576 19.288
*N *2639:25 *C 33.576 21.112
*N *2639:26 *C 33.424 21.112
*N *2639:27 *C 33.424 22.936
*N *2639:28 *C 33.424 23.530
*N *2639:29 *C 33.438 23.544
*N *2639:30 *C 35.083 23.544
*N *2639:31 *C 35.096 23.558
*N *2639:32 *C 35.096 24.443

*CAP
0 *249:Q 0.001
1 *57:A6 0.001
2 *73:A2 0.001
3 *255:A3 0.001
4 *328:A5 0.001
5 *287:A2 0.001
6 *291:A1 0.001
7 *86:A3 0.001
8 *2639:8 0.01997813
9 *2639:9 0.1032168
10 *2639:10 0.1046495
11 *2639:11 0.04699767
12 *2639:12 0.01812738
13 *2639:13 0.01956006
14 *2639:14 0.1528947
15 *2639:15 0.01401544
16 *2639:16 0.005861474
17 *2639:17 0.1619086
18 *2639:18 0.05798851
19 *2639:19 0.273854
20 *2639:20 0.01515149
21 *2639:21 0.2928104
22 *2639:22 0.2445658
23 *2639:23 0.2445658
24 *2639:24 0.1479835
25 *2639:25 0.1362582
26 *2639:26 0.105259
27 *2639:27 0.1294271
28 *2639:28 0.03148137
29 *2639:29 0.07507035
30 *2639:30 0.07507035
31 *2639:31 0.0623024
32 *2639:32 0.06086972

*RES
0 *249:Q *2639:32 1
1 *2639:10 *2639:9 2.666071
2 *2639:11 *2639:10 0.5
3 *2639:9 *291:A1 1
4 *2639:13 *2639:12 0.4946429
5 *2639:14 *2639:13 0.5
6 *2639:14 *2639:11 1.604465
7 *2639:12 *287:A2 1
8 *2639:16 *328:A5 1
9 *2639:16 *2639:15 0.1991667
10 *2639:17 *2639:16 0.5
11 *2639:17 *2639:14 2.714286
12 *2639:19 *2639:18 0.5
13 *2639:18 *2639:17 1.333036
14 *2639:20 *255:A3 1
15 *2639:21 *2639:20 0.5187501
16 *2639:21 *2639:19 8.661608
17 *2639:22 *2639:21 0.5
18 *2639:24 *2639:23 0.5
19 *2639:24 *2639:8 0.5187501
20 *2639:23 *2639:22 10.26607
21 *2639:8 *86:A3 1
22 *2639:28 *2639:27 1.061607
23 *2639:29 *2639:28 0.5
24 *2639:31 *2639:30 0.5
25 *2639:30 *2639:29 2.9375
26 *2639:32 *2639:31 1.580357
27 *2639:27 *57:A6 1
28 *2639:27 *2639:26 3.257143
29 *2639:26 *73:A2 1
30 *2639:26 *2639:25 0.2714286
31 *2639:25 *2639:24 3.257143

*END

*D_NET *2644 2.445798 //LENGTH 23.913 LUMPCC 0 DR

*CONN
*I *245:Q O *L 0 *C 38.136 14.424
*I *253:A1 I *L 0.666174 *C 43.608 14.272
*I *254:A1 I *L 0.601783 *C 43.760 15.820
*I *300:A2 I *L 0.516516 *C 45.432 11.840
*I *84:A2 I *L 0.504426 *C 45.432 7.736
*I *112:A4 I *L 0.552216 *C 42.544 8.952
*I *85:A2 I *L 0.515513 *C 45.781 8.496
*I *303:A1 I *L 0.545966 *C 46.952 9.256
*I *202:A4 I *L 0.554348 *C 45.766 14.424
*N *2644:9 *C 38.136 14.242
*N *2644:10 *C 46.192 14.242
*N *2644:11 *C 46.177 14.424
*N *2644:12 *C 46.192 14.412
*N *2644:13 *C 46.178 14.424
*N *2644:14 *C 46.952 9.242
*N *2644:15 *C 46.952 8.662
*N *2644:16 *C 46.939 8.648
*N *2644:17 *C 45.736 8.496
*N *2644:18 *C 45.736 8.496
*N *2644:19 *C 45.736 8.636
*N *2644:20 *C 45.736 8.648
*N *2644:21 *C 42.544 8.951
*N *2644:22 *C 42.544 8.662
*N *2644:23 *C 42.558 8.648
*N *2644:24 *C 45.432 7.750
*N *2644:25 *C 45.432 8.635
*N *2644:26 *C 45.432 8.649
*N *2644:27 *C 45.432 9.255
*N *2644:28 *C 45.432 9.270
*N *2644:29 *C 45.432 11.840
*N *2644:30 *C 45.432 14.411
*N *2644:31 *C 45.432 14.424
*N *2644:32 *C 43.620 15.792
*N *2644:33 *C 43.608 15.779
*N *2644:34 *C 43.608 14.273
*N *2644:35 *C 43.608 14.424
*N *2644:36 *C 43.608 14.424
*N *2644:37 *C 38.150 14.424
*N *2644:38 *C 38.136 14.412

*CAP
0 *245:Q 0.001
1 *253:A1 0.001
2 *254:A1 0.01502572
3 *300:A2 0.001
4 *84:A2 0.001
5 *112:A4 0.001
6 *85:A2 0.01219148
7 *303:A1 0.001
8 *202:A4 0.03306665
9 *2644:9 0.0182993
10 *2644:10 0.02260596
11 *2644:11 0.03099125
12 *2644:12 0.01815835
13 *2644:13 0.03469692
14 *2644:14 0.03496949
15 *2644:15 0.03640217
16 *2644:16 0.04763988
17 *2644:17 0.01011608
18 *2644:18 0.01816029
19 *2644:19 0.01786347
20 *2644:20 0.06084258
21 *2644:21 0.01809982
22 *2644:22 0.0195325
23 *2644:23 0.1273155
24 *2644:24 0.06657883
25 *2644:25 0.06801151
26 *2644:26 0.1644519
27 *2644:27 0.02156151
28 *2644:28 0.1384152
29 *2644:29 0.2987725
30 *2644:30 0.1594178
31 *2644:31 0.113899
32 *2644:32 0.01295032
33 *2644:33 0.1115716
34 *2644:34 0.006745684
35 *2644:35 0.1218253
36 *2644:36 0.32335
37 *2644:37 0.2441479
38 *2644:38 0.01212219

*RES
0 *245:Q *2644:38 1
1 *2644:15 *2644:14 1.0375
2 *2644:16 *2644:15 0.5
3 *2644:14 *303:A1 1
4 *2644:19 *2644:18 0.2325
5 *2644:20 *2644:19 0.5
6 *2644:20 *2644:16 2.147322
7 *2644:17 *85:A2 0.09166668
8 *2644:18 *2644:17 1
9 *2644:12 *2644:11 1
10 *2644:12 *2644:10 0.2825
11 *2644:13 *2644:12 0.5
12 *2644:11 *202:A4 0.8220001
13 *2644:30 *2644:29 4.590178
14 *2644:31 *2644:30 0.5
15 *2644:31 *2644:13 1.333036
16 *2644:29 *300:A2 1
17 *2644:29 *2644:28 4.590179
18 *2644:28 *2644:27 0.5
19 *2644:27 *2644:26 1.082143
20 *2644:25 *2644:24 1.580357
21 *2644:26 *2644:25 0.5
22 *2644:26 *2644:23 5.133036
23 *2644:26 *2644:20 0.5428572
24 *2644:24 *84:A2 1
25 *2644:32 *254:A1 0.2325
26 *2644:33 *2644:32 1
27 *2644:35 *2644:34 0.2696429
28 *2644:35 *2644:33 2.41875
29 *2644:36 *2644:35 0.5
30 *2644:36 *2644:31 3.257143
31 *2644:34 *253:A1 1
32 *2644:22 *2644:21 0.5169643
33 *2644:23 *2644:22 0.5
34 *2644:21 *112:A4 1
35 *2644:38 *2644:37 0.5
36 *2644:38 *2644:9 0.2825
37 *2644:37 *2644:36 9.747323

*END

*D_NET *2651 2.307927 //LENGTH 30.872 LUMPCC 0 DR

*CONN
*I *374:Q O *L 0 *C 21.264 5.608
*I *346:A4 I *L 0.569168 *C 23.392 9.408
*I *69:A4 I *L 0.529682 *C 41.328 7.736
*I *83:A I *L 0.582888 *C 44.368 7.432
*N *2651:4 *C 44.368 7.250
*N *2651:5 *C 44.368 7.420
*N *2651:6 *C 44.355 7.432
*N *2651:7 *C 41.328 7.723
*N *2651:8 *C 41.328 7.446
*N *2651:9 *C 41.342 7.432
*N *2651:10 *C 41.189 7.432
*N *2651:11 *C 41.176 7.419
*N *2651:12 *C 41.176 6.230
*N *2651:13 *C 41.163 6.216
*N *2651:14 *C 24.470 6.216
*N *2651:15 *C 24.456 6.230
*N *2651:16 *C 24.456 7.419
*N *2651:17 *C 24.443 7.432
*N *2651:18 *C 23.392 9.395
*N *2651:19 *C 23.392 7.446
*N *2651:20 *C 23.392 7.432
*N *2651:21 *C 21.277 7.432
*N *2651:22 *C 21.264 7.419
*N *2651:23 *C 21.264 5.622

*CAP
0 *374:Q 0.001
1 *346:A4 0.001
2 *69:A4 0.001
3 *83:A 0.001
4 *2651:4 0.01308782
5 *2651:5 0.0069107
6 *2651:6 0.1308733
7 *2651:7 0.02118202
8 *2651:8 0.0226147
9 *2651:9 0.1437083
10 *2651:10 0.01046333
11 *2651:11 0.05442191
12 *2651:12 0.05442243
13 *2651:13 0.540307
14 *2651:14 0.540307
15 *2651:15 0.05871987
16 *2651:16 0.05871934
17 *2651:17 0.04059346
18 *2651:18 0.09942674
19 *2651:19 0.1008594
20 *2651:20 0.130404
21 *2651:21 0.08743881
22 *2651:22 0.09544955
23 *2651:23 0.09401687

*RES
0 *374:Q *2651:23 1
1 *2651:5 *83:A 1
2 *2651:5 *2651:4 0.2825
3 *2651:6 *2651:5 0.5
4 *2651:8 *2651:7 0.4946429
5 *2651:9 *2651:8 0.5
6 *2651:9 *2651:6 5.380358
7 *2651:7 *69:A4 1
8 *2651:10 *2651:9 0.255
9 *2651:11 *2651:10 0.5
10 *2651:12 *2651:11 2.123214
11 *2651:13 *2651:12 0.5
12 *2651:15 *2651:14 0.5
13 *2651:14 *2651:13 29.80893
14 *2651:17 *2651:16 0.5
15 *2651:16 *2651:15 2.123214
16 *2651:19 *2651:18 3.480358
17 *2651:20 *2651:19 0.5
18 *2651:20 *2651:17 1.875893
19 *2651:18 *346:A4 1
20 *2651:22 *2651:21 0.5
21 *2651:21 *2651:20 3.775893
22 *2651:23 *2651:22 3.208929

*END

*D_NET *2655 1.765985 //LENGTH 14.689 LUMPCC 0 DR

*CONN
*I *362:Q O *L 0 *C 22.784 37.832
*I *350:A4 I *L 0.569168 *C 20.200 36.160
*I *63:A4 I *L 0.529682 *C 20.061 45.736
*I *93:A I *L 0.582888 *C 21.416 46.040
*N *2655:4 *C 22.784 37.650
*N *2655:5 *C 21.416 45.858
*N *2655:6 *C 21.416 46.028
*N *2655:7 *C 21.402 46.040
*N *2655:8 *C 20.213 46.040
*N *2655:9 *C 20.200 46.027
*N *2655:10 *C 20.188 45.736
*N *2655:11 *C 20.200 45.736
*N *2655:12 *C 20.200 36.174
*N *2655:13 *C 20.200 37.832
*N *2655:14 *C 20.213 37.832
*N *2655:15 *C 22.771 37.832
*N *2655:16 *C 22.784 37.820

*CAP
0 *362:Q 0.001
1 *350:A4 0.001
2 *63:A4 0.01456131
3 *93:A 0.001
4 *2655:4 0.01783432
5 *2655:5 0.01378112
6 *2655:6 0.007604009
7 *2655:7 0.05957583
8 *2655:8 0.05957583
9 *2655:9 0.0205564
10 *2655:10 0.01248591
11 *2655:11 0.5422292
12 *2655:12 0.1239429
13 *2655:13 0.6467515
14 *2655:14 0.1162146
15 *2655:15 0.1162146
16 *2655:16 0.0116572

*RES
0 *362:Q *2655:16 1
1 *2655:9 *2655:8 0.5
2 *2655:8 *2655:7 2.123214
3 *2655:6 *93:A 1
4 *2655:6 *2655:5 0.2825
5 *2655:7 *2655:6 0.5
6 *2655:13 *2655:12 2.961607
7 *2655:13 *2655:11 14.11429
8 *2655:14 *2655:13 0.5
9 *2655:16 *2655:15 0.5
10 *2655:16 *2655:4 0.2825
11 *2655:15 *2655:14 4.566072
12 *2655:12 *350:A4 1
13 *2655:10 *63:A4 0.2116667
14 *2655:11 *2655:10 1
15 *2655:11 *2655:9 0.5187501

*END

*D_NET *2659 0.8678201 //LENGTH 7.947 LUMPCC 0 DR

*CONN
*I *370:Q O *L 0 *C 25.824 25.672
*I *354:A4 I *L 0.569168 *C 24.456 27.344
*I *51:A4 I *L 0.529682 *C 25.064 29.016
*I *101:A I *L 0.582888 *C 26.128 29.320
*N *2659:4 *C 26.128 29.306
*N *2659:5 *C 26.128 28.712
*N *2659:6 *C 25.064 29.003
*N *2659:7 *C 24.456 27.358
*N *2659:8 *C 24.456 28.395
*N *2659:9 *C 24.470 28.408
*N *2659:10 *C 25.050 28.408
*N *2659:11 *C 25.064 28.422
*N *2659:12 *C 25.064 28.712
*N *2659:13 *C 25.078 28.712
*N *2659:14 *C 25.963 28.712
*N *2659:15 *C 25.976 28.712
*N *2659:16 *C 25.976 26.584
*N *2659:17 *C 25.824 26.584
*N *2659:18 *C 25.824 25.686

*CAP
0 *370:Q 0.001
1 *354:A4 0.001
2 *51:A4 0.001
3 *101:A 0.001
4 *2659:4 0.05088614
5 *2659:5 0.06262879
6 *2659:6 0.02133423
7 *2659:7 0.07572607
8 *2659:8 0.07715875
9 *2659:9 0.03048887
10 *2659:10 0.03048887
11 *2659:11 0.02041074
12 *2659:12 0.04554987
13 *2659:13 0.04491796
14 *2659:14 0.04491796
15 *2659:15 0.11706
16 *2659:16 0.1207004
17 *2659:17 0.0672811
18 *2659:18 0.0542703

*RES
0 *370:Q *2659:18 1
1 *2659:4 *101:A 1
2 *2659:18 *2659:17 1.604464
3 *2659:6 *51:A4 1
4 *2659:15 *2659:14 0.5
5 *2659:15 *2659:5 0.2714286
6 *2659:14 *2659:13 1.580357
7 *2659:12 *2659:11 0.5187501
8 *2659:12 *2659:6 0.5187501
9 *2659:13 *2659:12 0.5
10 *2659:11 *2659:10 0.5
11 *2659:10 *2659:9 1.0375
12 *2659:8 *2659:7 1.851786
13 *2659:9 *2659:8 0.5
14 *2659:7 *354:A4 1
15 *2659:17 *2659:16 0.2714286
16 *2659:16 *2659:15 3.8
17 *2659:5 *2659:4 1.061607

*END

*D_NET *2663 0.2929196 //LENGTH 3.522 LUMPCC 0 DR

*CONN
*I *212:Y O *L 0 *C 9.256 9.408
*I *136:D I *L 0.543562 *C 11.232 10.624
*N *2663:2 *C 11.232 10.611
*N *2663:3 *C 11.232 9.878
*N *2663:4 *C 11.219 9.864
*N *2663:5 *C 9.270 9.864
*N *2663:6 *C 9.256 9.851
*N *2663:7 *C 9.256 9.421

*CAP
0 *212:Y 0.001
1 *136:D 0.001
2 *2663:2 0.03329833
3 *2663:3 0.03473101
4 *2663:4 0.0840962
5 *2663:5 0.0840962
6 *2663:6 0.02806527
7 *2663:7 0.02663259

*RES
0 *212:Y *2663:7 1
1 *2663:2 *136:D 1
2 *2663:3 *2663:2 1.308929
3 *2663:4 *2663:3 0.5
4 *2663:6 *2663:5 0.5
5 *2663:5 *2663:4 3.480357
6 *2663:7 *2663:6 0.7660715

*END

*D_NET *2666 0.7034191 //LENGTH 9.607 LUMPCC 0 DR

*CONN
*I *205:Y O *L 0 *C 5.608 10.472
*I *234:D I *L 0.543569 *C 11.384 13.968
*N *2666:2 *C 11.384 13.956
*N *2666:3 *C 11.384 13.816
*N *2666:4 *C 11.370 13.816
*N *2666:5 *C 5.622 13.816
*N *2666:6 *C 5.608 13.803
*N *2666:7 *C 5.608 10.486

*CAP
0 *205:Y 0.001
1 *234:D 0.001
2 *2666:2 0.00646641
3 *2666:3 0.007899089
4 *2666:4 0.1967395
5 *2666:5 0.1967395
6 *2666:6 0.1475037
7 *2666:7 0.146071

*RES
0 *205:Y *2666:7 1
1 *2666:2 *234:D 1
2 *2666:3 *2666:2 0.2325
3 *2666:4 *2666:3 0.5
4 *2666:6 *2666:5 0.5
5 *2666:5 *2666:4 10.26607
6 *2666:7 *2666:6 5.923214

*END

*D_NET *2668 0.4872485 //LENGTH 6.699 LUMPCC 0 DR

*CONN
*I *310:Y O *L 0 *C 5.760 19.592
*I *228:D I *L 0.543569 *C 11.840 19.440
*N *2668:2 *C 5.760 19.410
*N *2668:3 *C 11.840 19.440
*N *2668:4 *C 11.840 19.579
*N *2668:5 *C 11.827 19.592
*N *2668:6 *C 5.774 19.592
*N *2668:7 *C 5.760 19.579

*CAP
0 *310:Y 0.001
1 *228:D 0.001
2 *2668:2 0.01614914
3 *2668:3 0.01422764
4 *2668:4 0.01566032
5 *2668:5 0.2146197
6 *2668:6 0.2146197
7 *2668:7 0.009972024

*RES
0 *310:Y *2668:7 1
1 *2668:3 *228:D 1
2 *2668:4 *2668:3 0.2325
3 *2668:5 *2668:4 0.5
4 *2668:7 *2668:6 0.5
5 *2668:7 *2668:2 0.2825
6 *2668:6 *2668:5 10.80893

*END

*D_NET *2671 0.1187413 //LENGTH 0.743 LUMPCC 0 DR

*CONN
*I *87:Y O *L 0 *C 8.483 27.344
*I *233:D I *L 0.543569 *C 9.226 27.344

*CAP
0 *87:Y 0.05937066
1 *233:D 0.05937066

*RES
0 *87:Y *233:D 1.486

*END

*D_NET *2675 0.8299263 //LENGTH 8.234 LUMPCC 0 DR

*CONN
*I *166:Y O *L 0 *C 7.584 36.312
*I *235:D I *L 0.543569 *C 5.304 30.688
*N *2675:2 *C 5.304 30.702
*N *2675:3 *C 5.304 31.739
*N *2675:4 *C 5.317 31.752
*N *2675:5 *C 7.571 31.752
*N *2675:6 *C 7.584 31.766
*N *2675:7 *C 7.584 36.299

*CAP
0 *166:Y 0.001
1 *235:D 0.001
2 *2675:2 0.05090827
3 *2675:3 0.05234095
4 *2675:4 0.09752624
5 *2675:5 0.09752624
6 *2675:6 0.2655286
7 *2675:7 0.2640959

*RES
0 *166:Y *2675:7 1
1 *2675:2 *235:D 1
2 *2675:3 *2675:2 1.851786
3 *2675:4 *2675:3 0.5
4 *2675:6 *2675:5 0.5
5 *2675:5 *2675:4 4.023215
6 *2675:7 *2675:6 8.094644

*END

*D_NET *2679 13.88894 //LENGTH 146.801 LUMPCC 0 DR

*CONN
*I *138:Y O *L 0 *C 12.296 16.096
*I *233:RSTB I *L 1.062234 *C 10.776 26.888
*I *223:RSTB I *L 1.062234 *C 10.776 29.928
*I *222:RSTB I *L 1.062234 *C 11.384 30.232
*I *235:RSTB I *L 1.062234 *C 6.824 30.232
*I *229:RSTB I *L 1.062234 *C 6.976 33.576
*I *137:RSTB I *L 0.906543 *C 11.384 36.920
*I *224:RSTB I *L 1.062234 *C 11.384 36.616
*I *230:RSTB I *L 1.062234 *C 10.776 39.960
*I *394:RSTB I *L 1.062234 *C 15.944 26.584
*I *369:RSTB I *L 1.062234 *C 16.248 26.888
*I *368:RSTB I *L 1.062234 *C 15.944 30.232
*I *363:RSTB I *L 1.062234 *C 17.008 36.616
*I *361:RSTB I *L 1.062234 *C 15.792 36.920
*I *360:RSTB I *L 1.062234 *C 15.944 39.982
*I *362:RSTB I *L 1.062234 *C 20.352 36.920
*I *340:RSTB I *L 1.062234 *C 24.944 36.928
*I *240:RSTB I *L 0.906543 *C 25.368 39.960
*I *339:RSTB I *L 1.062234 *C 29.472 36.920
*I *238:RSTB I *L 0.906543 *C 28.712 30.232
*I *239:RSTB I *L 0.906543 *C 28.712 29.928
*I *370:RSTB I *L 1.062234 *C 27.952 26.606
*I *366:RSTB I *L 1.062234 *C 27.952 23.544
*I *237:RSTB I *L 0.906543 *C 34.032 36.920
*I *418:RSTB I *L 0.906543 *C 37.984 33.576
*I *414:RSTB I *L 0.906543 *C 37.680 33.272
*I *410:RSTB I *L 0.906543 *C 37.224 26.888
*I *249:RSTB I *L 0.906543 *C 37.224 23.544
*I *415:RSTB I *L 0.906543 *C 37.224 29.928
*I *497:RSTB I *L 1.062234 *C 35.096 43.608
*I *412:RSTB I *L 0.906543 *C 38.440 43.304
*I *411:RSTB I *L 0.906543 *C 39.504 40.264
*I *416:RSTB I *L 0.906543 *C 39.504 39.960
*I *413:RSTB I *L 0.906543 *C 38.592 46.648
*I *417:RSTB I *L 0.906543 *C 38.288 36.616
*I *498:RSTB I *L 1.062234 *C 34.944 39.982
*I *241:RSTB I *L 0.906543 *C 30.688 39.960
*I *242:RSTB I *L 0.906543 *C 21.264 40.264
*I *371:RSTB I *L 1.062234 *C 17.160 33.272
*N *2679:39 *C 17.159 33.272
*N *2679:40 *C 21.264 40.082
*N *2679:41 *C 21.264 40.252
*N *2679:42 *C 21.251 40.264
*N *2679:43 *C 20.366 40.264
*N *2679:44 *C 20.352 40.251
*N *2679:45 *C 30.688 39.947
*N *2679:46 *C 34.944 39.960
*N *2679:47 *C 34.944 39.947
*N *2679:48 *C 34.944 38.758
*N *2679:49 *C 34.931 38.744
*N *2679:50 *C 38.287 36.616
*N *2679:51 *C 38.592 46.635
*N *2679:52 *C 39.504 39.974
*N *2679:53 *C 39.504 40.251
*N *2679:54 *C 39.491 40.264
*N *2679:55 *C 38.605 40.264
*N *2679:56 *C 38.592 40.278
*N *2679:57 *C 38.592 43.304
*N *2679:58 *C 38.441 43.304
*N *2679:59 *C 38.427 43.304
*N *2679:60 *C 35.096 43.426
*N *2679:61 *C 35.096 43.596
*N *2679:62 *C 35.110 43.608
*N *2679:63 *C 37.984 43.608
*N *2679:64 *C 37.984 43.304
*N *2679:65 *C 37.984 43.291
*N *2679:66 *C 37.224 29.915
*N *2679:67 *C 37.224 23.558
*N *2679:68 *C 37.224 26.888
*N *2679:69 *C 37.224 29.624
*N *2679:70 *C 37.238 29.624
*N *2679:71 *C 37.666 29.624
*N *2679:72 *C 37.680 29.638
*N *2679:73 *C 37.680 33.259
*N *2679:74 *C 37.694 33.272
*N *2679:75 *C 37.832 33.272
*N *2679:76 *C 37.832 33.576
*N *2679:77 *C 37.971 33.576
*N *2679:78 *C 37.984 33.590
*N *2679:79 *C 37.984 36.616
*N *2679:80 *C 38.136 36.616
*N *2679:81 *C 38.123 36.616
*N *2679:82 *C 33.880 36.616
*N *2679:83 *C 33.880 36.920
*N *2679:84 *C 34.019 36.920
*N *2679:85 *C 34.032 36.934
*N *2679:86 *C 34.032 38.730
*N *2679:87 *C 34.032 38.744
*N *2679:88 *C 30.702 38.744
*N *2679:89 *C 30.688 38.744
*N *2679:90 *C 30.688 37.238
*N *2679:91 *C 30.675 37.224
*N *2679:92 *C 27.952 23.558
*N *2679:93 *C 27.952 26.584
*N *2679:94 *C 27.952 26.584
*N *2679:95 *C 27.952 29.928
*N *2679:96 *C 28.712 29.942
*N *2679:97 *C 28.712 30.232
*N *2679:98 *C 29.472 36.738
*N *2679:99 *C 29.472 36.907
*N *2679:100 *C 29.459 36.920
*N *2679:101 *C 28.726 36.920
*N *2679:102 *C 28.712 36.920
*N *2679:103 *C 28.712 37.211
*N *2679:104 *C 28.712 37.224
*N *2679:105 *C 25.368 39.947
*N *2679:106 *C 25.368 37.238
*N *2679:107 *C 25.368 37.224
*N *2679:108 *C 25.060 36.920
*N *2679:109 *C 25.064 36.934
*N *2679:110 *C 25.064 37.211
*N *2679:111 *C 25.064 37.224
*N *2679:112 *C 24.912 37.224
*N *2679:113 *C 24.912 37.528
*N *2679:114 *C 20.366 37.528
*N *2679:115 *C 20.352 37.528
*N *2679:116 *C 20.352 36.934
*N *2679:117 *C 20.338 36.920
*N *2679:118 *C 17.616 36.920
*N *2679:119 *C 17.616 36.616
*N *2679:120 *C 15.944 39.960
*N *2679:121 *C 15.944 39.947
*N *2679:122 *C 15.793 36.920
*N *2679:123 *C 15.944 36.934
*N *2679:124 *C 15.944 36.919
*N *2679:125 *C 15.944 36.616
*N *2679:126 *C 17.008 36.616
*N *2679:127 *C 17.008 36.602
*N *2679:128 *C 17.008 33.272
*N *2679:129 *C 17.008 31.766
*N *2679:130 *C 16.995 31.752
*N *2679:131 *C 15.958 31.752
*N *2679:132 *C 15.944 31.739
*N *2679:133 *C 15.944 30.232
*N *2679:134 *C 16.248 26.902
*N *2679:135 *C 16.248 27.192
*N *2679:136 *C 15.944 26.598
*N *2679:137 *C 15.944 27.192
*N *2679:138 *C 15.944 27.496
*N *2679:139 *C 15.931 27.496
*N *2679:140 *C 10.777 39.960
*N *2679:141 *C 10.928 39.960
*N *2679:142 *C 11.384 36.630
*N *2679:143 *C 11.384 36.907
*N *2679:144 *C 11.370 36.920
*N *2679:145 *C 10.942 36.920
*N *2679:146 *C 10.928 36.920
*N *2679:147 *C 6.976 33.562
*N *2679:148 *C 6.824 30.245
*N *2679:149 *C 6.824 31.144
*N *2679:150 *C 6.976 31.158
*N *2679:151 *C 6.990 31.144
*N *2679:152 *C 10.915 31.144
*N *2679:153 *C 10.928 31.144
*N *2679:154 *C 11.384 30.050
*N *2679:155 *C 11.384 30.220
*N *2679:156 *C 11.370 30.232
*N *2679:157 *C 10.942 30.232
*N *2679:158 *C 10.928 30.232
*N *2679:159 *C 10.776 29.915
*N *2679:160 *C 10.776 29.320
*N *2679:161 *C 10.928 29.320
*N *2679:162 *C 10.776 26.902
*N *2679:163 *C 10.776 27.496
*N *2679:164 *C 10.928 27.510
*N *2679:165 *C 10.942 27.496
*N *2679:166 *C 12.296 27.496
*N *2679:167 *C 12.295 27.496
*N *2679:168 *C 12.144 27.496
*N *2679:169 *C 12.144 16.248
*N *2679:170 *C 12.296 16.248
*N *2679:171 *C 12.296 16.110

*CAP
0 *138:Y 0.001
1 *233:RSTB 0.001
2 *223:RSTB 0.001
3 *222:RSTB 0.001
4 *235:RSTB 0.001
5 *229:RSTB 0.001
6 *137:RSTB 0.001
7 *224:RSTB 0.001
8 *230:RSTB 0.001
9 *394:RSTB 0.001
10 *369:RSTB 0.001
11 *368:RSTB 0.001
12 *363:RSTB 0.001
13 *361:RSTB 0.001
14 *360:RSTB 0.006505062
15 *362:RSTB 0.001
16 *340:RSTB 0.006580675
17 *240:RSTB 0.001
18 *339:RSTB 0.001
19 *238:RSTB 0.001
20 *239:RSTB 0.001
21 *370:RSTB 0.00614227
22 *366:RSTB 0.001
23 *237:RSTB 0.001
24 *418:RSTB 0.001
25 *414:RSTB 0.001
26 *410:RSTB 0.001
27 *249:RSTB 0.001
28 *415:RSTB 0.001
29 *497:RSTB 0.001
30 *412:RSTB 0.001
31 *411:RSTB 0.001
32 *416:RSTB 0.001
33 *413:RSTB 0.001
34 *417:RSTB 0.001
35 *498:RSTB 0.006411337
36 *241:RSTB 0.001
37 *242:RSTB 0.001
38 *371:RSTB 0.001
39 *2679:39 0.005243686
40 *2679:40 0.01511266
41 *2679:41 0.008935542
42 *2679:42 0.04323543
43 *2679:43 0.04323543
44 *2679:44 0.1804709
45 *2679:45 0.05832972
46 *2679:46 0.004335939
47 *2679:47 0.05627679
48 *2679:48 0.05597997
49 *2679:49 0.04998926
50 *2679:50 0.00403675
51 *2679:51 0.1487118
52 *2679:52 0.01462961
53 *2679:53 0.01225739
54 *2679:54 0.03725796
55 *2679:55 0.03725796
56 *2679:56 0.1396285
57 *2679:57 0.3027411
58 *2679:58 0.002046551
59 *2679:59 0.02415994
60 *2679:60 0.01213408
61 *2679:61 0.005956964
62 *2679:62 0.125699
63 *2679:63 0.1399309
64 *2679:64 0.03601963
65 *2679:65 0.2809229
66 *2679:66 0.01219727
67 *2679:67 0.1451276
68 *2679:68 0.2672893
69 *2679:69 0.1357917
70 *2679:70 0.02452546
71 *2679:71 0.02452546
72 *2679:72 0.1523763
73 *2679:73 0.1485714
74 *2679:74 0.008855064
75 *2679:75 0.02263563
76 *2679:76 0.0219436
77 *2679:77 0.008163027
78 *2679:78 0.1288412
79 *2679:79 0.4260689
80 *2679:80 0.0132249
81 *2679:81 0.1723358
82 *2679:82 0.1867859
83 *2679:83 0.0226336
84 *2679:84 0.008183562
85 *2679:85 0.1210637
86 *2679:86 0.1248686
87 *2679:87 0.2267911
88 *2679:88 0.1744296
89 *2679:89 0.1280802
90 *2679:90 0.06594556
91 *2679:91 0.07538907
92 *2679:92 0.1304034
93 *2679:93 0.004066872
94 *2679:94 0.2725578
95 *2679:95 0.1753935
96 *2679:96 0.04666273
97 *2679:97 0.3262006
98 *2679:98 0.01285474
99 *2679:99 0.006677626
100 *2679:100 0.03578382
101 *2679:101 0.03578382
102 *2679:102 0.3272571
103 *2679:103 0.01275058
104 *2679:104 0.2007203
105 *2679:105 0.2140878
106 *2679:106 0.2155205
107 *2679:107 0.1355961
108 *2679:108 0.004505276
109 *2679:109 0.02363758
110 *2679:110 0.02334076
111 *2679:111 0.0177474
112 *2679:112 0.020666
113 *2679:113 0.2162006
114 *2679:114 0.2006448
115 *2679:115 0.2243458
116 *2679:116 0.03769775
117 *2679:117 0.1272012
118 *2679:118 0.1429377
119 *2679:119 0.03659197
120 *2679:120 0.004429664
121 *2679:121 0.1315199
122 *2679:122 0.004706974
123 *2679:123 0.1397349
124 *2679:124 0.01043292
125 *2679:125 0.05210773
126 *2679:126 0.06015802
127 *2679:127 0.1374462
128 *2679:128 0.2232556
129 *2679:129 0.06821147
130 *2679:130 0.04837493
131 *2679:131 0.04837493
132 *2679:132 0.06659437
133 *2679:133 0.1815415
134 *2679:134 0.0164491
135 *2679:135 0.03586693
136 *2679:136 0.02779883
137 *2679:137 0.06065799
138 *2679:138 0.1274489
139 *2679:139 0.1607473
140 *2679:140 0.005015509
141 *2679:141 0.1507832
142 *2679:142 0.01476959
143 *2679:143 0.01239737
144 *2679:144 0.02232091
145 *2679:145 0.02232091
146 *2679:146 0.3974441
147 *2679:147 0.1185946
148 *2679:148 0.05055667
149 *2679:149 0.0633738
150 *2679:150 0.1290395
151 *2679:151 0.1690993
152 *2679:152 0.1690993
153 *2679:153 0.2970917
154 *2679:154 0.01319445
155 *2679:155 0.007017334
156 *2679:156 0.02517012
157 *2679:157 0.02517012
158 *2679:158 0.08704875
159 *2679:159 0.04166492
160 *2679:160 0.05419571
161 *2679:161 0.1435067
162 *2679:162 0.03109097
163 *2679:163 0.04351014
164 *2679:164 0.09321225
165 *2679:165 0.05891138
166 *2679:166 0.2220309
167 *2679:167 0.007042485
168 *2679:168 0.8989363
169 *2679:169 0.8975049
170 *2679:170 0.02205038
171 *2679:171 0.01026223

*RES
0 *138:Y *2679:171 1
1 *2679:53 *411:RSTB 1
2 *2679:53 *2679:52 0.4946429
3 *2679:52 *416:RSTB 1
4 *2679:51 *413:RSTB 1
5 *2679:54 *2679:53 0.5
6 *2679:56 *2679:55 0.5
7 *2679:55 *2679:54 1.580357
8 *2679:58 *412:RSTB 1
9 *2679:58 *2679:57 0.2696429
10 *2679:50 *417:RSTB 1
11 *2679:59 *2679:58 0.5
12 *2679:65 *2679:64 0.5
13 *2679:64 *2679:63 0.5428572
14 *2679:64 *2679:59 0.7901787
15 *2679:78 *418:RSTB 1
16 *2679:78 *2679:77 0.5
17 *2679:77 *2679:76 0.2473214
18 *2679:73 *414:RSTB 1
19 *2679:73 *2679:72 6.466072
20 *2679:74 *2679:73 0.5
21 *2679:66 *415:RSTB 1
22 *2679:72 *2679:71 0.5
23 *2679:71 *2679:70 0.7660714
24 *2679:69 *2679:68 4.885715
25 *2679:69 *2679:66 0.5187501
26 *2679:70 *2679:69 0.5
27 *2679:68 *410:RSTB 1
28 *2679:68 *2679:67 5.947322
29 *2679:67 *249:RSTB 1
30 *2679:61 *497:RSTB 1
31 *2679:61 *2679:60 0.2825
32 *2679:62 *2679:61 0.5
33 *2679:48 *2679:47 2.123214
34 *2679:49 *2679:48 0.5
35 *2679:46 *498:RSTB 0.02727273
36 *2679:47 *2679:46 1
37 *2679:86 *2679:85 3.208929
38 *2679:87 *2679:86 0.5
39 *2679:87 *2679:49 1.604464
40 *2679:85 *237:RSTB 1
41 *2679:85 *2679:84 0.5
42 *2679:80 *2679:79 0.2714286
43 *2679:80 *2679:50 0.2696429
44 *2679:81 *2679:80 0.5
45 *2679:84 *2679:83 0.2473215
46 *2679:45 *241:RSTB 1
47 *2679:89 *2679:88 0.5
48 *2679:89 *2679:45 2.147322
49 *2679:88 *2679:87 5.947322
50 *2679:90 *2679:89 2.690179
51 *2679:91 *2679:90 0.5
52 *2679:103 *2679:102 0.5187501
53 *2679:104 *2679:103 0.5
54 *2679:104 *2679:91 3.504464
55 *2679:102 *2679:101 0.5
56 *2679:102 *2679:97 11.94286
57 *2679:101 *2679:100 1.308929
58 *2679:99 *339:RSTB 1
59 *2679:99 *2679:98 0.2825
60 *2679:100 *2679:99 0.5
61 *2679:97 *238:RSTB 1
62 *2679:97 *2679:96 0.5187501
63 *2679:96 *239:RSTB 1
64 *2679:96 *2679:95 1.357143
65 *2679:93 *370:RSTB 0.02727273
66 *2679:94 *2679:93 1
67 *2679:94 *2679:92 5.404464
68 *2679:92 *366:RSTB 1
69 *2679:106 *2679:105 4.837501
70 *2679:107 *2679:106 0.5
71 *2679:107 *2679:104 5.971429
72 *2679:105 *240:RSTB 1
73 *2679:110 *2679:109 0.4946429
74 *2679:111 *2679:110 0.5
75 *2679:111 *2679:107 0.5428572
76 *2679:108 *340:RSTB 0.02727273
77 *2679:109 *2679:108 1
78 *2679:44 *2679:43 0.5
79 *2679:43 *2679:42 1.580357
80 *2679:41 *242:RSTB 1
81 *2679:41 *2679:40 0.2825
82 *2679:42 *2679:41 0.5
83 *2679:115 *2679:114 0.5
84 *2679:115 *2679:44 4.861607
85 *2679:114 *2679:113 8.118751
86 *2679:116 *362:RSTB 1
87 *2679:116 *2679:115 1.061607
88 *2679:117 *2679:116 0.5
89 *2679:39 *371:RSTB 1
90 *2679:127 *363:RSTB 1
91 *2679:127 *2679:126 0.5
92 *2679:126 *2679:125 1.9
93 *2679:126 *2679:119 1.085714
94 *2679:134 *369:RSTB 1
95 *2679:120 *360:RSTB 0.02727273
96 *2679:121 *2679:120 1
97 *2679:123 *2679:122 0.2696429
98 *2679:123 *2679:121 5.380358
99 *2679:124 *2679:123 0.5
100 *2679:129 *2679:128 2.690179
101 *2679:130 *2679:129 0.5
102 *2679:132 *2679:131 0.5
103 *2679:131 *2679:130 1.851786
104 *2679:133 *368:RSTB 1
105 *2679:133 *2679:132 2.690179
106 *2679:136 *394:RSTB 1
107 *2679:122 *361:RSTB 1
108 *2679:138 *2679:137 0.5428572
109 *2679:138 *2679:133 4.885715
110 *2679:139 *2679:138 0.5
111 *2679:167 *2679:166 0.5
112 *2679:166 *2679:165 2.41875
113 *2679:166 *2679:139 6.490179
114 *2679:171 *2679:170 0.2473214
115 *2679:143 *137:RSTB 1
116 *2679:143 *2679:142 0.4946429
117 *2679:142 *224:RSTB 1
118 *2679:144 *2679:143 0.5
119 *2679:146 *2679:145 0.5
120 *2679:146 *2679:141 5.428572
121 *2679:145 *2679:144 0.7660715
122 *2679:158 *2679:157 0.5
123 *2679:158 *2679:153 1.628571
124 *2679:157 *2679:156 0.7660715
125 *2679:155 *222:RSTB 1
126 *2679:155 *2679:154 0.2825
127 *2679:156 *2679:155 0.5
128 *2679:164 *2679:163 0.2714286
129 *2679:164 *2679:161 3.233036
130 *2679:165 *2679:164 0.5
131 *2679:140 *230:RSTB 1
132 *2679:159 *223:RSTB 1
133 *2679:162 *233:RSTB 1
134 *2679:147 *229:RSTB 1
135 *2679:153 *2679:152 0.5
136 *2679:153 *2679:146 10.31429
137 *2679:152 *2679:151 7.008929
138 *2679:150 *2679:149 0.2714286
139 *2679:150 *2679:147 4.294643
140 *2679:151 *2679:150 0.5
141 *2679:148 *235:RSTB 1
142 *2679:149 *2679:148 1.604465
143 *2679:163 *2679:162 1.061607
144 *2679:160 *2679:159 1.061607
145 *2679:161 *2679:160 0.2714286
146 *2679:161 *2679:158 1.628572
147 *2679:141 *2679:140 0.2696429
148 *2679:169 *2679:168 20.08572
149 *2679:168 *2679:167 0.2696429
150 *2679:170 *2679:169 0.2714286
151 *2679:137 *2679:136 1.061607
152 *2679:137 *2679:135 0.5428572
153 *2679:135 *2679:134 0.51875
154 *2679:128 *2679:127 5.947322
155 *2679:128 *2679:39 0.2696429
156 *2679:95 *2679:94 5.971429
157 *2679:79 *2679:78 5.404465
158 *2679:79 *2679:65 11.91875
159 *2679:57 *2679:56 5.404464
160 *2679:57 *2679:51 5.947322
161 *2679:125 *2679:124 0.5410715
162 *2679:119 *2679:118 0.5428572
163 *2679:118 *2679:117 4.861607
164 *2679:113 *2679:112 0.5428572
165 *2679:112 *2679:111 0.2714286
166 *2679:82 *2679:81 7.575893
167 *2679:83 *2679:82 0.5428572
168 *2679:63 *2679:62 5.133036
169 *2679:75 *2679:74 0.2473214
170 *2679:76 *2679:75 0.5428572

*END

*D_NET *2711 1.479383 //LENGTH 13.841 LUMPCC 0 DR

*CONN
*I *230:Q O *L 0 *C 13.208 39.048
*I *159:A1 I *L 0.666174 *C 8.496 37.680
*I *74:A3 I *L 0.539281 *C 9.408 42.392
*I *155:A1 I *L 0.549073 *C 8.344 44.520
*N *2711:4 *C 8.344 44.519
*N *2711:5 *C 9.408 42.210
*N *2711:6 *C 9.408 42.380
*N *2711:7 *C 9.395 42.392
*N *2711:8 *C 8.357 42.392
*N *2711:9 *C 8.344 42.392
*N *2711:10 *C 8.344 39.808
*N *2711:11 *C 8.496 39.808
*N *2711:12 *C 8.496 37.694
*N *2711:13 *C 8.496 38.744
*N *2711:14 *C 8.510 38.744
*N *2711:15 *C 13.195 38.744
*N *2711:16 *C 13.208 38.758
*N *2711:17 *C 13.208 39.035

*CAP
0 *230:Q 0.001
1 *159:A1 0.001
2 *74:A3 0.001
3 *155:A1 0.001
4 *2711:4 0.134433
5 *2711:5 0.01803807
6 *2711:6 0.01186095
7 *2711:7 0.04743778
8 *2711:8 0.04743778
9 *2711:9 0.2683535
10 *2711:10 0.1408978
11 *2711:11 0.09537776
12 *2711:12 0.07420761
13 *2711:13 0.1626081
14 *2711:14 0.2229603
15 *2711:15 0.2229603
16 *2711:16 0.01512139
17 *2711:17 0.01368871

*RES
0 *230:Q *2711:17 1
1 *2711:13 *2711:12 1.875893
2 *2711:13 *2711:11 1.9
3 *2711:14 *2711:13 0.5
4 *2711:16 *2711:15 0.5
5 *2711:15 *2711:14 8.366072
6 *2711:17 *2711:16 0.4946429
7 *2711:12 *159:A1 1
8 *2711:4 *155:A1 1
9 *2711:9 *2711:8 0.5
10 *2711:9 *2711:4 3.798214
11 *2711:8 *2711:7 1.851786
12 *2711:6 *74:A3 1
13 *2711:6 *2711:5 0.2825
14 *2711:7 *2711:6 0.5
15 *2711:10 *2711:9 4.614286
16 *2711:11 *2711:10 0.2714286

*END

*D_NET *2713 0.6990421 //LENGTH 8.319 LUMPCC 0 DR

*CONN
*I *223:Q O *L 0 *C 13.208 29.016
*I *265:A4 I *L 0.514778 *C 7.584 29.168
*I *151:A2 I *L 0.466516 *C 6.672 29.320
*N *2713:3 *C 6.672 29.321
*N *2713:4 *C 6.672 29.611
*N *2713:5 *C 6.686 29.624
*N *2713:6 *C 7.584 29.181
*N *2713:7 *C 7.584 29.611
*N *2713:8 *C 7.584 29.624
*N *2713:9 *C 13.195 29.624
*N *2713:10 *C 13.208 29.611
*N *2713:11 *C 13.208 29.030

*CAP
0 *223:Q 0.001
1 *265:A4 0.001
2 *151:A2 0.001
3 *2713:3 0.01779089
4 *2713:4 0.01905061
5 *2713:5 0.04315583
6 *2713:6 0.03571444
7 *2713:7 0.03714712
8 *2713:8 0.2687552
9 *2713:9 0.2232271
10 *2713:10 0.02631679
11 *2713:11 0.02488412

*RES
0 *223:Q *2713:11 1
1 *2713:10 *2713:9 0.5
2 *2713:9 *2713:8 10.01875
3 *2713:11 *2713:10 1.0375
4 *2713:7 *2713:6 0.7660715
5 *2713:8 *2713:7 0.5
6 *2713:8 *2713:5 1.604464
7 *2713:6 *265:A4 1
8 *2713:4 *2713:3 0.5169644
9 *2713:5 *2713:4 0.5
10 *2713:3 *151:A2 1

*END

*D_NET *2717 0.3787759 //LENGTH 3.724 LUMPCC 0 DR

*CONN
*I *228:Q O *L 0 *C 7.888 18.984
*I *310:A4 I *L 0.514778 *C 6.824 19.136
*I *143:A2 I *L 0.466516 *C 6.520 17.464
*N *2717:3 *C 7.888 18.802
*N *2717:4 *C 6.520 17.477
*N *2717:5 *C 6.520 18.832
*N *2717:6 *C 6.824 18.832
*N *2717:7 *C 6.824 19.123
*N *2717:8 *C 6.824 18.983
*N *2717:9 *C 6.838 18.984
*N *2717:10 *C 7.875 18.984
*N *2717:11 *C 7.888 18.972

*CAP
0 *228:Q 0.001
1 *310:A4 0.001
2 *143:A2 0.001
3 *2717:3 0.01356709
4 *2717:4 0.08381463
5 *2717:5 0.1030316
6 *2717:6 0.02914292
7 *2717:7 0.01173858
8 *2717:8 0.02690214
9 *2717:9 0.05009448
10 *2717:10 0.05009448
11 *2717:11 0.007389977

*RES
0 *228:Q *2717:11 1
1 *2717:7 *310:A4 1
2 *2717:8 *2717:7 0.2341667
3 *2717:8 *2717:6 0.2696429
4 *2717:9 *2717:8 0.5
5 *2717:11 *2717:10 0.5
6 *2717:11 *2717:3 0.2825
7 *2717:10 *2717:9 1.851786
8 *2717:4 *143:A2 1
9 *2717:5 *2717:4 2.41875
10 *2717:6 *2717:5 0.5428572

*END

*D_NET *2721 1.381976 //LENGTH 14.121 LUMPCC 0 DR

*CONN
*I *232:Q O *L 0 *C 16.704 5.608
*I *504:A3 I *L 0.539281 *C 11.536 5.608
*I *139:A1 I *L 0.666174 *C 10.624 9.104
*I *203:A1 I *L 0.610599 *C 11.384 9.256
*I *207:A1 I *L 0.549073 *C 10.168 5.608
*N *2721:5 *C 16.704 5.426
*N *2721:6 *C 10.168 5.607
*N *2721:7 *C 10.168 5.317
*N *2721:8 *C 10.181 5.304
*N *2721:9 *C 11.384 9.242
*N *2721:10 *C 10.624 9.091
*N *2721:11 *C 10.624 8.357
*N *2721:12 *C 10.638 8.344
*N *2721:13 *C 11.370 8.344
*N *2721:14 *C 11.384 8.344
*N *2721:15 *C 11.536 5.595
*N *2721:16 *C 11.536 5.304
*N *2721:17 *C 11.384 5.304
*N *2721:18 *C 11.384 5.305
*N *2721:19 *C 11.384 5.608
*N *2721:20 *C 16.691 5.608
*N *2721:21 *C 16.704 5.596

*CAP
0 *232:Q 0.001
1 *504:A3 0.001
2 *139:A1 0.001
3 *203:A1 0.001
4 *207:A1 0.001
5 *2721:5 0.01285064
6 *2721:6 0.0182459
7 *2721:7 0.01967858
8 *2721:8 0.05112185
9 *2721:9 0.06324845
10 *2721:10 0.04676606
11 *2721:11 0.04819874
12 *2721:12 0.03956614
13 *2721:13 0.03956614
14 *2721:14 0.2601187
15 *2721:15 0.02111124
16 *2721:16 0.03369519
17 *2721:17 0.2018444
18 *2721:18 0.0630839
19 *2721:19 0.2327703
20 *2721:20 0.218436
21 *2721:21 0.006673529

*RES
0 *232:Q *2721:21 1
1 *2721:21 *2721:20 0.5
2 *2721:21 *2721:5 0.2825
3 *2721:20 *2721:19 9.475893
4 *2721:15 *504:A3 1
5 *2721:9 *203:A1 1
6 *2721:17 *2721:16 0.2714286
7 *2721:17 *2721:14 5.428572
8 *2721:18 *2721:17 0.5
9 *2721:18 *2721:8 2.147322
10 *2721:14 *2721:13 0.5
11 *2721:14 *2721:9 1.604465
12 *2721:13 *2721:12 1.308929
13 *2721:11 *2721:10 1.308929
14 *2721:12 *2721:11 0.5
15 *2721:10 *139:A1 1
16 *2721:7 *2721:6 0.5169643
17 *2721:8 *2721:7 0.5
18 *2721:6 *207:A1 1
19 *2721:16 *2721:15 0.5187501
20 *2721:19 *2721:18 0.5410715

*END

*D_NET *2726 0.499459 //LENGTH 4.611 LUMPCC 0 DR

*CONN
*I *325:Y O *L 0 *C 21.872 42.240
*I *242:D I *L 0.543562 *C 19.714 40.720
*N *2726:2 *C 19.455 40.720
*N *2726:3 *C 19.440 40.733
*N *2726:4 *C 19.440 41.163
*N *2726:5 *C 19.454 41.176
*N *2726:6 *C 21.858 41.176
*N *2726:7 *C 21.872 41.190
*N *2726:8 *C 21.872 42.227

*CAP
0 *325:Y 0.001
1 *242:D 0.02324469
2 *2726:2 0.02116929
3 *2726:3 0.0432409
4 *2726:4 0.04294408
5 *2726:5 0.1161251
6 *2726:6 0.1161251
7 *2726:7 0.06852134
8 *2726:8 0.06708866

*RES
0 *325:Y *2726:8 1
1 *2726:2 *242:D 0.5180001
2 *2726:3 *2726:2 1
3 *2726:4 *2726:3 0.7660714
4 *2726:5 *2726:4 0.5
5 *2726:7 *2726:6 0.5
6 *2726:6 *2726:5 4.294643
7 *2726:8 *2726:7 1.851786

*END

*D_NET *2731 1.389083 //LENGTH 14.314 LUMPCC 0 DR

*CONN
*I *301:Y O *L 0 *C 43.608 12.144
*I *246:D I *L 0.543562 *C 34.792 17.312
*N *2731:2 *C 34.792 17.299
*N *2731:3 *C 34.792 12.614
*N *2731:4 *C 34.806 12.600
*N *2731:5 *C 43.595 12.600
*N *2731:6 *C 43.608 12.587
*N *2731:7 *C 43.608 12.158

*CAP
0 *301:Y 0.001
1 *246:D 0.001
2 *2731:2 0.2547293
3 *2731:3 0.256162
4 *2731:4 0.4143709
5 *2731:5 0.4143709
6 *2731:6 0.02444126
7 *2731:7 0.02300859

*RES
0 *301:Y *2731:7 1
1 *2731:2 *246:D 1
2 *2731:3 *2731:2 8.366072
3 *2731:4 *2731:3 0.5
4 *2731:6 *2731:5 0.5
5 *2731:5 *2731:4 15.69464
6 *2731:7 *2731:6 0.7660714

*END

*D_NET *2734 0.26979 //LENGTH 2.286 LUMPCC 0 DR

*CONN
*I *286:Y O *L 0 *C 26.128 30.232
*I *239:D I *L 0.543562 *C 27.192 29.472
*N *2734:2 *C 26.128 30.050
*N *2734:3 *C 27.192 29.486
*N *2734:4 *C 27.192 30.219
*N *2734:5 *C 27.178 30.232
*N *2734:6 *C 26.142 30.232
*N *2734:7 *C 26.128 30.220

*CAP
0 *286:Y 0.001
1 *239:D 0.001
2 *2734:2 0.02282885
3 *2734:3 0.04842496
4 *2734:4 0.04985764
5 *2734:5 0.06485776
6 *2734:6 0.06485776
7 *2734:7 0.01696304

*RES
0 *286:Y *2734:7 1
1 *2734:3 *239:D 1
2 *2734:4 *2734:3 1.308929
3 *2734:5 *2734:4 0.5
4 *2734:7 *2734:6 0.5
5 *2734:7 *2734:2 0.2825
6 *2734:6 *2734:5 1.851786

*END

*D_NET *2738 0.6673142 //LENGTH 7.611 LUMPCC 0 DR

*CONN
*I *206:Y O *L 0 *C 45.736 22.936
*I *243:D I *L 0.543562 *C 38.744 22.784
*N *2738:2 *C 45.736 22.754
*N *2738:3 *C 38.744 22.784
*N *2738:4 *C 38.744 22.924
*N *2738:5 *C 38.758 22.936
*N *2738:6 *C 45.723 22.936
*N *2738:7 *C 45.736 22.924

*CAP
0 *206:Y 0.001
1 *243:D 0.001
2 *2738:2 0.0179738
3 *2738:3 0.01512554
4 *2738:4 0.01655822
5 *2738:5 0.30193
6 *2738:6 0.30193
7 *2738:7 0.01179669

*RES
0 *206:Y *2738:7 1
1 *2738:3 *243:D 1
2 *2738:4 *2738:3 0.2325
3 *2738:5 *2738:4 0.5
4 *2738:7 *2738:6 0.5
5 *2738:7 *2738:2 0.2825
6 *2738:6 *2738:5 12.4375

*END

*D_NET *2742 0.4143347 //LENGTH 3.958 LUMPCC 0 DR

*CONN
*I *252:Y O *L 0 *C 45.584 20.656
*I *206:A1 I *L 0.47841 *C 44.064 22.632
*N *2742:2 *C 44.064 22.450
*N *2742:3 *C 44.064 22.620
*N *2742:4 *C 44.078 22.632
*N *2742:5 *C 45.571 22.632
*N *2742:6 *C 45.584 22.619
*N *2742:7 *C 45.584 20.669

*CAP
0 *252:Y 0.001
1 *206:A1 0.001
2 *2742:2 0.01703981
3 *2742:3 0.0108627
4 *2742:4 0.07276314
5 *2742:5 0.07276314
6 *2742:6 0.1201693
7 *2742:7 0.1187366

*RES
0 *252:Y *2742:7 1
1 *2742:3 *206:A1 1
2 *2742:3 *2742:2 0.2825
3 *2742:4 *2742:3 0.5
4 *2742:6 *2742:5 0.5
5 *2742:5 *2742:4 2.666071
6 *2742:7 *2742:6 3.480358

*END

*D_NET *2746 0.2589645 //LENGTH 2.996 LUMPCC 0 DR

*CONN
*I *276:Y O *L 0 *C 31.296 34.032
*I *277:A4 I *L 0.552216 *C 29.168 34.488
*N *2746:2 *C 29.168 34.356
*N *2746:3 *C 29.168 34.476
*N *2746:4 *C 29.181 34.488
*N *2746:5 *C 31.283 34.488
*N *2746:6 *C 31.296 34.474
*N *2746:7 *C 31.296 34.046

*CAP
0 *276:Y 0.001
1 *277:A4 0.001
2 *2746:2 0.01490524
3 *2746:3 0.006751278
4 *2746:4 0.09508829
5 *2746:5 0.09706514
6 *2746:6 0.02229365
7 *2746:7 0.02086097

*RES
0 *276:Y *2746:7 1
1 *2746:3 *277:A4 1
2 *2746:3 *2746:2 0.1991667
3 *2746:4 *2746:3 0.5
4 *2746:6 *2746:5 0.5
5 *2746:5 *2746:4 3.751786
6 *2746:7 *2746:6 0.7660713

*END

*D_NET *2748 0.5344065 //LENGTH 5.169 LUMPCC 0 DR

*CONN
*I *280:Y O *L 0 *C 29.776 27.648
*I *281:A2 I *L 0.466516 *C 31.448 30.840
*N *2748:2 *C 31.448 30.839
*N *2748:3 *C 31.448 28.726
*N *2748:4 *C 31.434 28.712
*N *2748:5 *C 29.790 28.712
*N *2748:6 *C 29.776 28.699
*N *2748:7 *C 29.776 27.662

*CAP
0 *280:Y 0.001
1 *281:A2 0.001
2 *2748:2 0.1048005
3 *2748:3 0.1060602
4 *2748:4 0.07852493
5 *2748:5 0.07852493
6 *2748:6 0.08296427
7 *2748:7 0.08153159

*RES
0 *280:Y *2748:7 1
1 *2748:2 *281:A2 1
2 *2748:3 *2748:2 3.774107
3 *2748:4 *2748:3 0.5
4 *2748:6 *2748:5 0.5
5 *2748:5 *2748:4 2.9375
6 *2748:7 *2748:6 1.851786

*END

*D_NET *2751 0.295651 //LENGTH 3.097 LUMPCC 0 DR

*CONN
*I *282:Y O *L 0 *C 35.400 34.336
*I *283:A1 I *L 0.484201 *C 35.248 32.664
*I *283:A3 I *L 0.539281 *C 34.640 32.360
*N *2751:3 *C 34.640 32.373
*N *2751:4 *C 34.640 32.651
*N *2751:5 *C 34.654 32.664
*N *2751:6 *C 35.235 32.664
*N *2751:7 *C 35.249 32.664
*N *2751:8 *C 35.400 32.664
*N *2751:9 *C 35.400 34.323

*CAP
0 *282:Y 0.001
1 *283:A1 0.001
2 *283:A3 0.001
3 *2751:3 0.01912375
4 *2751:4 0.02055643
5 *2751:5 0.03066708
6 *2751:6 0.03066708
7 *2751:7 0.002229998
8 *2751:8 0.1008094
9 *2751:9 0.08859735

*RES
0 *282:Y *2751:9 1
1 *2751:9 *2751:8 2.961607
2 *2751:7 *283:A1 1
3 *2751:7 *2751:6 0.5
4 *2751:6 *2751:5 1.0375
5 *2751:4 *2751:3 0.4946429
6 *2751:5 *2751:4 0.5
7 *2751:3 *283:A3 1
8 *2751:8 *2751:7 0.2696429

*END

*D_NET *2755 0.9066661 //LENGTH 9.400 LUMPCC 0 DR

*CONN
*I *284:Y O *L 0 *C 32.816 28.864
*I *286:A1 I *L 0.549073 *C 25.976 31.144
*N *2755:2 *C 25.976 31.143
*N *2755:3 *C 25.976 29.030
*N *2755:4 *C 25.989 29.016
*N *2755:5 *C 32.803 29.016
*N *2755:6 *C 32.816 29.003
*N *2755:7 *C 32.816 28.865

*CAP
0 *284:Y 0.001
1 *286:A1 0.001
2 *2755:2 0.1469177
3 *2755:3 0.1483504
4 *2755:4 0.2928845
5 *2755:5 0.2928845
6 *2755:6 0.01253079
7 *2755:7 0.01109811

*RES
0 *284:Y *2755:7 1
1 *2755:2 *286:A1 1
2 *2755:3 *2755:2 3.774107
3 *2755:4 *2755:3 0.5
4 *2755:6 *2755:5 0.5
5 *2755:5 *2755:4 12.16607
6 *2755:7 *2755:6 0.2455357

*END

*D_NET *2758 0.6595183 //LENGTH 7.890 LUMPCC 0 DR

*CONN
*I *264:Y O *L 0 *C 47.547 20.590
*I *206:A4 I *L 0.504499 *C 44.368 22.480
*I *290:A1 I *L 0.601783 *C 47.256 24.304
*N *2758:3 *C 47.256 24.291
*N *2758:4 *C 47.256 22.328
*N *2758:5 *C 47.408 22.328
*N *2758:6 *C 44.368 22.466
*N *2758:7 *C 44.368 22.038
*N *2758:8 *C 44.382 22.024
*N *2758:9 *C 47.395 22.024
*N *2758:10 *C 47.408 22.024
*N *2758:11 *C 47.408 20.518

*CAP
0 *264:Y 0.001
1 *206:A4 0.001
2 *290:A1 0.001
3 *2758:3 0.09232128
4 *2758:4 0.104024
5 *2758:5 0.0222308
6 *2758:6 0.02806472
7 *2758:7 0.0294974
8 *2758:8 0.1179573
9 *2758:9 0.1179573
10 *2758:10 0.08008569
11 *2758:11 0.06437979

*RES
0 *264:Y *2758:11 1
1 *2758:11 *2758:10 2.690179
2 *2758:3 *290:A1 1
3 *2758:10 *2758:9 0.5
4 *2758:10 *2758:5 0.5428572
5 *2758:9 *2758:8 5.380358
6 *2758:7 *2758:6 0.7660715
7 *2758:8 *2758:7 0.5
8 *2758:6 *206:A4 1
9 *2758:4 *2758:3 3.504464
10 *2758:5 *2758:4 0.2714286

*END

*D_NET *2762 0.5174435 //LENGTH 5.054 LUMPCC 0 DR

*CONN
*I *256:Y O *L 0 *C 44.233 17.464
*I *296:A4 I *L 0.565045 *C 45.280 17.464
*I *298:A3 I *L 0.456834 *C 46.496 17.464
*I *257:A2 I *L 0.466516 *C 46.648 19.288
*N *2762:4 *C 44.368 17.282
*N *2762:5 *C 46.635 19.288
*N *2762:6 *C 46.496 19.288
*N *2762:7 *C 46.496 17.477
*N *2762:8 *C 46.483 17.464
*N *2762:9 *C 45.280 17.282
*N *2762:10 *C 45.280 17.451
*N *2762:11 *C 45.280 17.464
*N *2762:12 *C 44.382 17.464
*N *2762:13 *C 44.368 17.451
*N *2762:14 *C 44.355 17.464

*CAP
0 *256:Y 0.01402907
1 *296:A4 0.001
2 *298:A3 0.001
3 *257:A2 0.001
4 *2762:4 0.0135793
5 *2762:5 0.005284474
6 *2762:6 0.1246647
7 *2762:7 0.1095712
8 *2762:8 0.05514358
9 *2762:9 0.01793012
10 *2762:10 0.011753
11 *2762:11 0.09945924
12 *2762:12 0.04194343
13 *2762:13 0.009131678
14 *2762:14 0.01195367

*RES
0 *256:Y *2762:14 0.2033333
1 *2762:5 *257:A2 1
2 *2762:7 *298:A3 1
3 *2762:7 *2762:6 3.233036
4 *2762:8 *2762:7 0.5
5 *2762:10 *296:A4 1
6 *2762:10 *2762:9 0.2825
7 *2762:11 *2762:10 0.5
8 *2762:11 *2762:8 2.147322
9 *2762:13 *2762:12 0.5
10 *2762:13 *2762:4 0.2825
11 *2762:12 *2762:11 1.604464
12 *2762:14 *2762:13 1
13 *2762:6 *2762:5 0.2473214

*END

*D_NET *2766 1.741188 //LENGTH 17.992 LUMPCC 0 DR

*CONN
*I *263:Y O *L 0 *C 44.368 27.648
*I *264:A3 I *L 0.465144 *C 46.952 20.960
*I *299:A1 I *L 0.549073 *C 46.952 14.424
*I *294:A I *L 0.582888 *C 47.256 15.944
*N *2766:4 *C 47.256 15.958
*N *2766:5 *C 47.256 16.552
*N *2766:6 *C 46.966 14.424
*N *2766:7 *C 47.104 14.424
*N *2766:8 *C 47.104 16.552
*N *2766:9 *C 47.104 21.416
*N *2766:10 *C 46.952 20.974
*N *2766:11 *C 46.952 21.416
*N *2766:12 *C 46.952 27.178
*N *2766:13 *C 46.939 27.192
*N *2766:14 *C 44.382 27.192
*N *2766:15 *C 44.368 27.206
*N *2766:16 *C 44.368 27.635

*CAP
0 *263:Y 0.001
1 *264:A3 0.001
2 *299:A1 0.001
3 *294:A 0.001
4 *2766:4 0.04797737
5 *2766:5 0.06002258
6 *2766:6 0.00490147
7 *2766:7 0.1177691
8 *2766:8 0.3570502
9 *2766:9 0.2476904
10 *2766:10 0.02312466
11 *2766:11 0.312786
12 *2766:12 0.2755409
13 *2766:13 0.1138355
14 *2766:14 0.1138355
15 *2766:15 0.03204326
16 *2766:16 0.03061058

*RES
0 *263:Y *2766:16 1
1 *2766:4 *294:A 1
2 *2766:10 *264:A3 1
3 *2766:6 *299:A1 1
4 *2766:12 *2766:11 10.29018
5 *2766:13 *2766:12 0.5
6 *2766:15 *2766:14 0.5
7 *2766:14 *2766:13 4.566072
8 *2766:16 *2766:15 0.7660714
9 *2766:7 *2766:6 0.2473214
10 *2766:11 *2766:10 0.7901787
11 *2766:11 *2766:9 0.2714286
12 *2766:9 *2766:8 8.685715
13 *2766:8 *2766:7 3.8
14 *2766:8 *2766:5 0.2714286
15 *2766:5 *2766:4 1.061607

*END

*D_NET *2771 1.655675 //LENGTH 15.121 LUMPCC 0 DR

*CONN
*I *298:Y O *L 0 *C 47.408 17.464
*I *302:A1 I *L 0.520769 *C 46.496 15.792
*I *300:A4 I *L 0.513828 *C 45.584 12.448
*I *507:A4 I *L 0.514778 *C 44.368 10.928
*I *303:A3 I *L 0.456834 *C 46.648 9.256
*I *302:A3 I *L 0.518192 *C 46.040 16.552
*N *2771:6 *C 46.040 16.538
*N *2771:7 *C 46.648 9.270
*N *2771:8 *C 46.648 10.155
*N *2771:9 *C 46.635 10.168
*N *2771:10 *C 44.368 10.915
*N *2771:11 *C 44.368 10.181
*N *2771:12 *C 44.382 10.168
*N *2771:13 *C 45.736 10.168
*N *2771:14 *C 45.736 10.181
*N *2771:15 *C 45.584 12.434
*N *2771:16 *C 45.584 12.296
*N *2771:17 *C 45.736 12.296
*N *2771:18 *C 45.736 15.792
*N *2771:19 *C 45.888 15.792
*N *2771:20 *C 45.888 16.248
*N *2771:21 *C 46.040 16.249
*N *2771:22 *C 46.041 16.248
*N *2771:23 *C 46.496 15.806
*N *2771:24 *C 46.496 16.235
*N *2771:25 *C 46.496 16.248
*N *2771:26 *C 47.395 16.248
*N *2771:27 *C 47.408 16.262
*N *2771:28 *C 47.408 17.451

*CAP
0 *298:Y 0.001
1 *302:A1 0.001
2 *300:A4 0.001
3 *507:A4 0.001
4 *303:A3 0.001
5 *302:A3 0.001
6 *2771:6 0.02504738
7 *2771:7 0.04472581
8 *2771:8 0.04615849
9 *2771:9 0.03846649
10 *2771:10 0.03845856
11 *2771:11 0.03989124
12 *2771:12 0.06199437
13 *2771:13 0.1028331
14 *2771:14 0.1431361
15 *2771:15 0.01487675
16 *2771:16 0.02703582
17 *2771:17 0.3897028
18 *2771:18 0.2460494
19 *2771:19 0.04331245
20 *2771:20 0.04342746
21 *2771:21 0.03680414
22 *2771:22 0.01957649
23 *2771:23 0.03239051
24 *2771:24 0.03382319
25 *2771:25 0.05869822
26 *2771:26 0.03674951
27 *2771:27 0.06397498
28 *2771:28 0.0625423

*RES
0 *298:Y *2771:28 1
1 *2771:27 *2771:26 0.5
2 *2771:26 *2771:25 1.604465
3 *2771:28 *2771:27 2.123214
4 *2771:24 *2771:23 0.7660715
5 *2771:25 *2771:24 0.5
6 *2771:25 *2771:22 0.8125
7 *2771:23 *302:A1 1
8 *2771:6 *302:A3 1
9 *2771:21 *2771:20 0.2714286
10 *2771:21 *2771:6 0.5169643
11 *2771:22 *2771:21 0.5
12 *2771:8 *2771:7 1.580357
13 *2771:9 *2771:8 0.5
14 *2771:7 *303:A3 1
15 *2771:14 *2771:13 0.5
16 *2771:13 *2771:12 2.41875
17 *2771:13 *2771:9 1.604464
18 *2771:15 *300:A4 1
19 *2771:11 *2771:10 1.308929
20 *2771:12 *2771:11 0.5
21 *2771:10 *507:A4 1
22 *2771:16 *2771:15 0.2473214
23 *2771:17 *2771:16 0.2714286
24 *2771:17 *2771:14 3.775893
25 *2771:18 *2771:17 6.242857
26 *2771:19 *2771:18 0.2714286
27 *2771:20 *2771:19 0.8142857

*END

*D_NET *2778 3.438543 //LENGTH 33.693 LUMPCC 0 DR

*CONN
*I *419:Y O *L 0 *C 42.255 27.511
*I *158:A I *L 1.421261 *C 42.696 25.976
*I *172:A I *L 0.732103 *C 41.176 25.976
*I *266:A2 I *L 0.697809 *C 45.582 24.000
*I *202:A1 I *L 0.520769 *C 46.040 14.272
*I *301:A1 I *L 0.526794 *C 43.000 12.448
*I *321:A3 I *L 0.507548 *C 41.328 10.168
*I *508:A3 I *L 0.518192 *C 39.404 10.168
*I *264:A1 I *L 0.526361 *C 46.496 20.808
*N *2778:9 *C 46.496 20.794
*N *2778:10 *C 46.496 20.504
*N *2778:11 *C 39.352 9.986
*N *2778:12 *C 39.352 10.168
*N *2778:13 *C 39.352 10.155
*N *2778:14 *C 39.366 10.168
*N *2778:15 *C 41.315 10.168
*N *2778:16 *C 41.328 10.181
*N *2778:17 *C 41.328 11.675
*N *2778:18 *C 41.342 11.688
*N *2778:19 *C 42.986 11.688
*N *2778:20 *C 43.000 11.702
*N *2778:21 *C 43.000 12.448
*N *2778:22 *C 43.000 13.498
*N *2778:23 *C 43.014 13.512
*N *2778:24 *C 46.027 13.512
*N *2778:25 *C 46.040 13.526
*N *2778:26 *C 46.040 14.272
*N *2778:27 *C 46.040 15.019
*N *2778:28 *C 46.053 15.032
*N *2778:29 *C 46.331 15.032
*N *2778:30 *C 46.344 15.046
*N *2778:31 *C 46.344 18.072
*N *2778:32 *C 46.192 18.072
*N *2778:33 *C 46.192 20.504
*N *2778:34 *C 46.178 20.504
*N *2778:35 *C 45.446 20.504
*N *2778:36 *C 45.432 20.518
*N *2778:37 *C 45.432 22.784
*N *2778:38 *C 45.584 22.784
*N *2778:39 *C 45.582 24.000
*N *2778:40 *C 45.584 24.747
*N *2778:41 *C 45.571 24.760
*N *2778:42 *C 42.710 24.760
*N *2778:43 *C 42.696 24.774
*N *2778:44 *C 41.176 25.975
*N *2778:45 *C 41.176 25.382
*N *2778:46 *C 41.190 25.368
*N *2778:47 *C 42.683 25.368
*N *2778:48 *C 42.696 25.368
*N *2778:49 *C 42.696 25.976
*N *2778:50 *C 42.696 27.483
*N *2778:51 *C 42.681 27.496

*CAP
0 *419:Y 0.03229517
1 *158:A 0.001
2 *172:A 0.001
3 *266:A2 0.001
4 *202:A1 0.001
5 *301:A1 0.001
6 *321:A3 0.001
7 *508:A3 0.01002607
8 *264:A1 0.001
9 *2778:9 0.01663601
10 *2778:10 0.0339922
11 *2778:11 0.01769017
12 *2778:12 0.007950672
13 *2778:13 0.01324255
14 *2778:14 0.09787327
15 *2778:15 0.09787327
16 *2778:16 0.09233881
17 *2778:17 0.0961437
18 *2778:18 0.08086888
19 *2778:19 0.08086888
20 *2778:20 0.03669384
21 *2778:21 0.08793561
22 *2778:22 0.05030224
23 *2778:23 0.1490741
24 *2778:24 0.1490741
25 *2778:25 0.04670597
26 *2778:26 0.09525311
27 *2778:27 0.04760761
28 *2778:28 0.0158031
29 *2778:29 0.0158031
30 *2778:30 0.205641
31 *2778:31 0.2175713
32 *2778:32 0.1691867
33 *2778:33 0.1708077
34 *2778:34 0.03060963
35 *2778:35 0.03060963
36 *2778:36 0.1479594
37 *2778:37 0.1593285
38 *2778:38 0.07535639
39 *2778:39 0.1058579
40 *2778:40 0.03510362
41 *2778:41 0.1125315
42 *2778:42 0.1125315
43 *2778:43 0.02900805
44 *2778:44 0.02728404
45 *2778:45 0.02871672
46 *2778:46 0.06706033
47 *2778:47 0.06706033
48 *2778:48 0.05759245
49 *2778:49 0.1031545
50 *2778:50 0.07629959
51 *2778:51 0.03021977

*RES
0 *419:Y *2778:51 0.765
1 *2778:9 *264:A1 1
2 *2778:30 *2778:29 0.5
3 *2778:29 *2778:28 0.4946429
4 *2778:27 *2778:26 1.333036
5 *2778:28 *2778:27 0.5
6 *2778:26 *202:A1 1
7 *2778:26 *2778:25 1.333036
8 *2778:39 *266:A2 0.5
9 *2778:39 *2778:38 2.171429
10 *2778:33 *2778:32 4.342857
11 *2778:33 *2778:10 0.5428572
12 *2778:34 *2778:33 0.5
13 *2778:36 *2778:35 0.5
14 *2778:35 *2778:34 1.308929
15 *2778:25 *2778:24 0.5
16 *2778:24 *2778:23 5.380358
17 *2778:22 *2778:21 1.875893
18 *2778:23 *2778:22 0.5
19 *2778:21 *301:A1 1
20 *2778:21 *2778:20 1.333036
21 *2778:49 *158:A 1
22 *2778:49 *2778:48 1.085714
23 *2778:40 *2778:39 1.333036
24 *2778:41 *2778:40 0.5
25 *2778:43 *2778:42 0.5
26 *2778:42 *2778:41 5.108929
27 *2778:51 *2778:50 1
28 *2778:50 *2778:49 2.690179
29 *2778:20 *2778:19 0.5
30 *2778:19 *2778:18 2.9375
31 *2778:17 *2778:16 2.666071
32 *2778:18 *2778:17 0.5
33 *2778:16 *321:A3 1
34 *2778:16 *2778:15 0.5
35 *2778:48 *2778:47 0.5
36 *2778:48 *2778:43 1.061607
37 *2778:47 *2778:46 2.666071
38 *2778:45 *2778:44 1.059821
39 *2778:46 *2778:45 0.5
40 *2778:44 *172:A 1
41 *2778:15 *2778:14 3.480358
42 *2778:13 *2778:12 1
43 *2778:13 *2778:11 0.2825
44 *2778:14 *2778:13 0.5
45 *2778:12 *508:A3 0.09166668
46 *2778:37 *2778:36 4.047322
47 *2778:38 *2778:37 0.2714286
48 *2778:32 *2778:31 0.2714286
49 *2778:31 *2778:30 5.404465
50 *2778:10 *2778:9 0.5187501

*END

*D_NET *2790 0.5856943 //LENGTH 4.060 LUMPCC 0 DR

*CONN
*I *329:Y O *L 0 *C 36.160 25.824
*I *330:A2 I *L 0.466516 *C 34.184 24.152
*N *2790:2 *C 34.184 24.020
*N *2790:3 *C 34.184 24.140
*N *2790:4 *C 34.198 24.152
*N *2790:5 *C 36.147 24.152
*N *2790:6 *C 36.160 24.166
*N *2790:7 *C 36.160 25.811

*CAP
0 *329:Y 0.001
1 *330:A2 0.001
2 *2790:2 0.01298069
3 *2790:3 0.00499968
4 *2790:4 0.1518774
5 *2790:5 0.1538542
6 *2790:6 0.1307075
7 *2790:7 0.1292748

*RES
0 *329:Y *2790:7 1
1 *2790:3 *330:A2 1
2 *2790:3 *2790:2 0.1991667
3 *2790:4 *2790:3 0.5
4 *2790:6 *2790:5 0.5
5 *2790:5 *2790:4 3.480357
6 *2790:7 *2790:6 2.9375

*END

*D_NET *2793 0.9977384 //LENGTH 8.502 LUMPCC 0 DR

*CONN
*I *287:Y O *L 0 *C 42.392 24.152
*I *295:A5 I *L 0.583269 *C 41.632 17.464
*I *288:A2 I *L 0.55521 *C 42.544 19.136
*N *2793:3 *C 42.544 19.123
*N *2793:4 *C 42.544 18.680
*N *2793:5 *C 41.632 17.465
*N *2793:6 *C 41.632 18.666
*N *2793:7 *C 41.646 18.680
*N *2793:8 *C 42.379 18.680
*N *2793:9 *C 42.392 18.680
*N *2793:10 *C 42.392 24.139

*CAP
0 *287:Y 0.001
1 *295:A5 0.001
2 *288:A2 0.001
3 *2793:3 0.03430979
4 *2793:4 0.04736215
5 *2793:5 0.0616488
6 *2793:6 0.06308148
7 *2793:7 0.04097355
8 *2793:8 0.04097355
9 *2793:9 0.3585347
10 *2793:10 0.3478545

*RES
0 *287:Y *2793:10 1
1 *2793:3 *288:A2 1
2 *2793:10 *2793:9 9.747322
3 *2793:9 *2793:8 0.5
4 *2793:9 *2793:4 0.2714286
5 *2793:8 *2793:7 1.308929
6 *2793:6 *2793:5 2.145536
7 *2793:7 *2793:6 0.5
8 *2793:5 *295:A5 1
9 *2793:4 *2793:3 0.7901787

*END

*D_NET *2797 1.399798 //LENGTH 14.361 LUMPCC 0 DR

*CONN
*I *240:QN O *L 0 *C 27.662 38.909
*I *260:A1 I *L 0.532953 *C 24.912 40.872
*I *210:A2 I *L 0.498632 *C 30.992 42.848
*I *316:A3 I *L 0.548175 *C 29.320 43.608
*I *236:A4 I *L 0.554348 *C 27.800 41.176
*N *2797:5 *C 27.800 41.163
*N *2797:6 *C 29.320 43.622
*N *2797:7 *C 29.320 43.899
*N *2797:8 *C 29.334 43.912
*N *2797:9 *C 30.979 43.912
*N *2797:10 *C 30.992 43.899
*N *2797:11 *C 30.992 42.848
*N *2797:12 *C 30.992 40.886
*N *2797:13 *C 30.979 40.872
*N *2797:14 *C 24.912 40.690
*N *2797:15 *C 24.912 40.860
*N *2797:16 *C 24.925 40.872
*N *2797:17 *C 27.800 40.872
*N *2797:18 *C 27.800 40.872
*N *2797:19 *C 27.800 38.910
*N *2797:20 *C 27.788 38.896

*CAP
0 *240:QN 0.01260094
1 *260:A1 0.001
2 *210:A2 0.001
3 *316:A3 0.001
4 *236:A4 0.001
5 *2797:5 0.01606009
6 *2797:6 0.02338986
7 *2797:7 0.02482253
8 *2797:8 0.07947216
9 *2797:9 0.07947216
10 *2797:10 0.06735784
11 *2797:11 0.1862703
12 *2797:12 0.1179729
13 *2797:13 0.139595
14 *2797:14 0.01630658
15 *2797:15 0.01012947
16 *2797:16 0.1260382
17 *2797:17 0.2680055
18 *2797:18 0.1186734
19 *2797:19 0.09910526
20 *2797:20 0.01052554

*RES
0 *240:QN *2797:20 0.21
1 *2797:11 *210:A2 1
2 *2797:11 *2797:10 1.875893
3 *2797:10 *2797:9 0.5
4 *2797:9 *2797:8 2.9375
5 *2797:7 *2797:6 0.4946429
6 *2797:8 *2797:7 0.5
7 *2797:6 *316:A3 1
8 *2797:12 *2797:11 3.504464
9 *2797:13 *2797:12 0.5
10 *2797:5 *236:A4 1
11 *2797:18 *2797:17 0.5
12 *2797:18 *2797:5 0.5187501
13 *2797:17 *2797:16 5.133036
14 *2797:17 *2797:13 5.675893
15 *2797:20 *2797:19 1
16 *2797:19 *2797:18 3.504464
17 *2797:15 *260:A1 1
18 *2797:15 *2797:14 0.2825
19 *2797:16 *2797:15 0.5

*END

*D_NET *2800 0.8089926 //LENGTH 8.302 LUMPCC 0 DR

*CONN
*I *237:QN O *L 0 *C 36.312 37.984
*I *258:A4 I *L 0.565045 *C 32.846 34.209
*I *275:A3 I *L 0.584801 *C 34.640 34.336
*N *2800:3 *C 34.640 34.349
*N *2800:4 *C 33.561 34.184
*N *2800:5 *C 33.576 34.198
*N *2800:6 *C 33.576 34.779
*N *2800:7 *C 33.590 34.792
*N *2800:8 *C 34.627 34.792
*N *2800:9 *C 34.640 34.792
*N *2800:10 *C 34.640 37.211
*N *2800:11 *C 34.654 37.224
*N *2800:12 *C 36.299 37.224
*N *2800:13 *C 36.312 37.238
*N *2800:14 *C 36.312 37.983

*CAP
0 *237:QN 0.001
1 *258:A4 0.05275498
2 *275:A3 0.001
3 *2800:3 0.02958948
4 *2800:4 0.05067958
5 *2800:5 0.03086079
6 *2800:6 0.03056397
7 *2800:7 0.05281378
8 *2800:8 0.05281378
9 *2800:9 0.1552397
10 *2800:10 0.1218453
11 *2800:11 0.06727186
12 *2800:12 0.06727186
13 *2800:13 0.04836007
14 *2800:14 0.04692739

*RES
0 *237:QN *2800:14 1
1 *2800:10 *2800:9 4.31875
2 *2800:11 *2800:10 0.5
3 *2800:13 *2800:12 0.5
4 *2800:12 *2800:11 2.9375
5 *2800:14 *2800:13 1.33125
6 *2800:3 *275:A3 1
7 *2800:9 *2800:8 0.5
8 *2800:9 *2800:3 0.7901785
9 *2800:8 *2800:7 1.851786
10 *2800:6 *2800:5 1.0375
11 *2800:7 *2800:6 0.5
12 *2800:4 *258:A4 1.43
13 *2800:5 *2800:4 1

*END

*D_NET *2805 0.4172939 //LENGTH 4.342 LUMPCC 0 DR

*CONN
*I *244:QN O *L 0 *C 43.000 15.488
*I *295:A6 I *L 0.609639 *C 41.784 17.008
*I *256:A4 I *L 0.565045 *C 43.608 17.464
*N *2805:3 *C 43.608 17.451
*N *2805:4 *C 43.608 16.870
*N *2805:5 *C 43.595 16.856
*N *2805:6 *C 41.784 17.007
*N *2805:7 *C 41.784 16.870
*N *2805:8 *C 41.797 16.856
*N *2805:9 *C 43.000 16.856
*N *2805:10 *C 43.000 16.843
*N *2805:11 *C 43.000 15.489

*CAP
0 *244:QN 0.001
1 *295:A6 0.001
2 *256:A4 0.001
3 *2805:3 0.04649084
4 *2805:4 0.04792352
5 *2805:5 0.02505356
6 *2805:6 0.01023324
7 *2805:7 0.01166591
8 *2805:8 0.05188249
9 *2805:9 0.07930827
10 *2805:10 0.07158438
11 *2805:11 0.0701517

*RES
0 *244:QN *2805:11 1
1 *2805:4 *2805:3 1.0375
2 *2805:5 *2805:4 0.5
3 *2805:3 *256:A4 1
4 *2805:10 *2805:9 0.5
5 *2805:9 *2805:8 2.147321
6 *2805:9 *2805:5 1.061607
7 *2805:11 *2805:10 2.416964
8 *2805:7 *2805:6 0.2455357
9 *2805:8 *2805:7 0.5
10 *2805:6 *295:A6 1

*END

*D_NET *2807 0.8009461 //LENGTH 9.026 LUMPCC 0 DR

*CONN
*I *249:QN O *L 0 *C 34.944 24.608
*I *328:A3 I *L 0.507548 *C 40.316 23.544
*I *328:A1 I *L 0.514394 *C 40.872 24.304
*N *2807:3 *C 40.872 24.318
*N *2807:4 *C 40.872 24.747
*N *2807:5 *C 40.858 24.760
*N *2807:6 *C 40.264 23.544
*N *2807:7 *C 40.264 23.558
*N *2807:8 *C 40.264 24.747
*N *2807:9 *C 40.264 24.760
*N *2807:10 *C 40.264 25.064
*N *2807:11 *C 34.958 25.064
*N *2807:12 *C 34.944 25.050
*N *2807:13 *C 34.944 24.609

*CAP
0 *249:QN 0.001
1 *328:A3 0.01008847
2 *328:A1 0.001
3 *2807:3 0.02229512
4 *2807:4 0.0237278
5 *2807:5 0.02638516
6 *2807:6 0.008013074
7 *2807:7 0.07361127
8 *2807:8 0.07331445
9 *2807:9 0.03941109
10 *2807:10 0.242711
11 *2807:11 0.2273128
12 *2807:12 0.02675428
13 *2807:13 0.0253216

*RES
0 *249:QN *2807:13 1
1 *2807:4 *2807:3 0.7660714
2 *2807:5 *2807:4 0.5
3 *2807:3 *328:A1 1
4 *2807:8 *2807:7 2.123214
5 *2807:9 *2807:8 0.5
6 *2807:9 *2807:5 1.061607
7 *2807:6 *328:A3 0.09166668
8 *2807:7 *2807:6 1
9 *2807:12 *2807:11 0.5
10 *2807:11 *2807:10 9.475893
11 *2807:13 *2807:12 0.788393
12 *2807:10 *2807:9 0.5428572

*END

*D_NET *2810 0.2864107 //LENGTH 2.719 LUMPCC 0 DR

*CONN
*I *358:Y O *L 0 *C 30.232 22.176
*I *366:D I *L 0.543569 *C 29.502 24.000
*N *2810:2 *C 30.217 24.000
*N *2810:3 *C 30.232 23.986
*N *2810:4 *C 30.232 22.190

*CAP
0 *358:Y 0.001
1 *366:D 0.04086434
2 *2810:2 0.03878894
3 *2810:3 0.1037434
4 *2810:4 0.1020139

*RES
0 *358:Y *2810:4 1
1 *2810:2 *366:D 1.43
2 *2810:3 *2810:2 1
3 *2810:4 *2810:3 3.208929

*END

*D_NET *2813 0.1676391 //LENGTH 1.526 LUMPCC 0 DR

*CONN
*I *355:Y O *L 0 *C 19.288 33.272
*I *371:D I *L 0.543569 *C 18.680 32.816
*N *2813:2 *C 19.288 33.090
*N *2813:3 *C 18.680 32.830
*N *2813:4 *C 18.680 33.259
*N *2813:5 *C 18.694 33.272
*N *2813:6 *C 19.274 33.272
*N *2813:7 *C 19.288 33.260

*CAP
0 *355:Y 0.001
1 *371:D 0.001
2 *2813:2 0.01916452
3 *2813:3 0.03359104
4 *2813:4 0.03502372
5 *2813:5 0.03160604
6 *2813:6 0.03160604
7 *2813:7 0.01464773

*RES
0 *355:Y *2813:7 1
1 *2813:3 *371:D 1
2 *2813:4 *2813:3 0.7660714
3 *2813:5 *2813:4 0.5
4 *2813:7 *2813:6 0.5
5 *2813:7 *2813:2 0.2825
6 *2813:6 *2813:5 1.0375

*END

*D_NET *2817 0.3379003 //LENGTH 3.135 LUMPCC 0 DR

*CONN
*I *351:Y O *L 0 *C 19.258 34.640
*I *363:D I *L 0.543569 *C 18.528 36.160
*N *2817:2 *C 18.528 36.174
*N *2817:3 *C 18.528 36.312
*N *2817:4 *C 18.376 36.312
*N *2817:5 *C 18.376 34.654
*N *2817:6 *C 18.391 34.640

*CAP
0 *351:Y 0.04902675
1 *363:D 0.001
2 *2817:2 0.01237981
3 *2817:3 0.02522583
4 *2817:4 0.1072166
5 *2817:5 0.09610002
6 *2817:6 0.04695135

*RES
0 *351:Y *2817:6 1.734
1 *2817:2 *363:D 1
2 *2817:6 *2817:5 1
3 *2817:5 *2817:4 2.961607
4 *2817:4 *2817:3 0.2714286
5 *2817:3 *2817:2 0.2473214

*END

*D_NET *2821 0.4877057 //LENGTH 5.498 LUMPCC 0 DR

*CONN
*I *347:Y O *L 0 *C 24.304 8.800
*I *375:D I *L 0.543569 *C 21.872 6.064
*N *2821:2 *C 21.872 6.078
*N *2821:3 *C 21.872 8.027
*N *2821:4 *C 21.886 8.040
*N *2821:5 *C 24.291 8.040
*N *2821:6 *C 24.304 8.053
*N *2821:7 *C 24.304 8.787

*CAP
0 *347:Y 0.001
1 *375:D 0.001
2 *2821:2 0.08746957
3 *2821:3 0.08890225
4 *2821:4 0.09929604
5 *2821:5 0.09929604
6 *2821:6 0.05608724
7 *2821:7 0.05465456

*RES
0 *347:Y *2821:7 1
1 *2821:2 *375:D 1
2 *2821:3 *2821:2 3.480357
3 *2821:4 *2821:3 0.5
4 *2821:6 *2821:5 0.5
5 *2821:5 *2821:4 4.294643
6 *2821:7 *2821:6 1.308929

*END

*D_NET *2825 8.620903 //LENGTH 79.130 LUMPCC 0 DR

*CONN
*I *341:Y O *L 0 *C 30.232 26.128
*I *358:A3 I *L 0.548175 *C 29.776 23.240
*I *354:A3 I *L 0.548175 *C 24.608 26.888
*I *353:A3 I *L 0.548175 *C 18.884 26.888
*I *355:A3 I *L 0.548175 *C 19.744 33.272
*I *351:A3 I *L 0.548175 *C 19.744 33.576
*I *349:A3 I *L 0.548175 *C 18.680 40.264
*I *348:A3 I *L 0.548175 *C 14.728 43.304
*I *350:A3 I *L 0.548175 *C 20.352 36.616
*I *352:A3 I *L 0.548175 *C 20.200 30.232
*I *359:A3 I *L 0.548175 *C 30.840 16.856
*I *356:A3 I *L 0.548175 *C 27.800 10.168
*I *347:A3 I *L 0.548175 *C 24.760 9.864
*I *346:A3 I *L 0.548175 *C 23.240 9.864
*I *357:A3 I *L 0.548175 *C 29.320 10.168
*I *345:A3 I *L 0.548175 *C 31.904 6.824
*I *344:A3 I *L 0.548175 *C 34.792 6.520
*N *2825:17 *C 34.792 6.534
*N *2825:18 *C 34.792 6.811
*N *2825:19 *C 34.779 6.824
*N *2825:20 *C 31.918 6.824
*N *2825:21 *C 31.904 6.838
*N *2825:22 *C 31.904 11.675
*N *2825:23 *C 31.891 11.688
*N *2825:24 *C 29.320 9.986
*N *2825:25 *C 29.320 10.155
*N *2825:26 *C 29.306 10.168
*N *2825:27 *C 23.240 9.851
*N *2825:28 *C 23.240 9.574
*N *2825:29 *C 23.254 9.560
*N *2825:30 *C 24.747 9.560
*N *2825:31 *C 24.760 9.574
*N *2825:32 *C 24.760 9.864
*N *2825:33 *C 24.760 10.155
*N *2825:34 *C 24.774 10.168
*N *2825:35 *C 27.800 10.350
*N *2825:36 *C 27.800 10.181
*N *2825:37 *C 27.800 10.168
*N *2825:38 *C 28.560 10.168
*N *2825:39 *C 28.560 10.181
*N *2825:40 *C 28.560 11.675
*N *2825:41 *C 28.574 11.688
*N *2825:42 *C 30.536 11.688
*N *2825:43 *C 30.536 11.702
*N *2825:44 *C 30.536 16.843
*N *2825:45 *C 30.550 16.856
*N *2825:46 *C 30.827 16.856
*N *2825:47 *C 30.840 16.870
*N *2825:48 *C 30.840 25.355
*N *2825:49 *C 30.827 25.368
*N *2825:50 *C 20.200 30.050
*N *2825:51 *C 20.200 30.220
*N *2825:52 *C 20.187 30.232
*N *2825:53 *C 20.352 36.434
*N *2825:54 *C 20.352 36.604
*N *2825:55 *C 20.338 36.616
*N *2825:56 *C 14.728 43.291
*N *2825:57 *C 14.728 41.190
*N *2825:58 *C 14.742 41.176
*N *2825:59 *C 18.666 41.176
*N *2825:60 *C 18.680 41.163
*N *2825:61 *C 18.680 40.264
*N *2825:62 *C 18.680 36.630
*N *2825:63 *C 18.694 36.616
*N *2825:64 *C 19.744 36.616
*N *2825:65 *C 19.744 36.602
*N *2825:66 *C 19.744 33.576
*N *2825:67 *C 19.744 33.285
*N *2825:68 *C 19.592 33.272
*N *2825:69 *C 19.592 30.245
*N *2825:70 *C 19.592 30.232
*N *2825:71 *C 18.846 30.232
*N *2825:72 *C 18.832 30.219
*N *2825:73 *C 18.832 26.888
*N *2825:74 *C 18.832 26.902
*N *2825:75 *C 18.832 28.104
*N *2825:76 *C 18.846 28.104
*N *2825:77 *C 24.595 28.104
*N *2825:78 *C 24.608 28.091
*N *2825:79 *C 24.608 26.888
*N *2825:80 *C 24.608 25.382
*N *2825:81 *C 24.622 25.368
*N *2825:82 *C 29.775 23.240
*N *2825:83 *C 29.624 23.240
*N *2825:84 *C 29.624 25.355
*N *2825:85 *C 29.624 25.368
*N *2825:86 *C 30.232 25.368
*N *2825:87 *C 30.232 25.382
*N *2825:88 *C 30.232 26.114

*CAP
0 *341:Y 0.001
1 *358:A3 0.001
2 *354:A3 0.001
3 *353:A3 0.009996095
4 *355:A3 0.001
5 *351:A3 0.001
6 *349:A3 0.001
7 *348:A3 0.001
8 *350:A3 0.001
9 *352:A3 0.001
10 *359:A3 0.001
11 *356:A3 0.001
12 *347:A3 0.001
13 *346:A3 0.001
14 *357:A3 0.001
15 *345:A3 0.001
16 *344:A3 0.001
17 *2825:17 0.02199798
18 *2825:18 0.02343066
19 *2825:19 0.1225784
20 *2825:20 0.1225784
21 *2825:21 0.2830795
22 *2825:22 0.2868844
23 *2825:23 0.0685509
24 *2825:24 0.01728829
25 *2825:25 0.01111118
26 *2825:26 0.03783558
27 *2825:27 0.01677132
28 *2825:28 0.018204
29 *2825:29 0.0785018
30 *2825:30 0.0785018
31 *2825:31 0.01716624
32 *2825:32 0.03405505
33 *2825:33 0.01594927
34 *2825:34 0.1399846
35 *2825:35 0.01550851
36 *2825:36 0.009331392
37 *2825:37 0.1756504
38 *2825:38 0.0735014
39 *2825:39 0.09102482
40 *2825:40 0.09102482
41 *2825:41 0.1004126
42 *2825:42 0.1713357
43 *2825:43 0.358058
44 *2825:44 0.358058
45 *2825:45 0.01739251
46 *2825:46 0.01739251
47 *2825:47 0.5148337
48 *2825:48 0.5186386
49 *2825:49 0.02625369
50 *2825:50 0.01613266
51 *2825:51 0.009955544
52 *2825:52 0.03413654
53 *2825:53 0.01686233
54 *2825:54 0.01068521
55 *2825:55 0.02761194
56 *2825:56 0.1466819
57 *2825:57 0.1481146
58 *2825:58 0.1575617
59 *2825:59 0.1575617
60 *2825:60 0.05735066
61 *2825:61 0.2655164
62 *2825:62 0.2072262
63 *2825:63 0.04826224
64 *2825:64 0.0782464
65 *2825:65 0.2250433
66 *2825:66 0.2460995
67 *2825:67 0.0278693
68 *2825:68 0.2330112
69 *2825:69 0.2214535
70 *2825:70 0.07724822
71 *2825:71 0.04073946
72 *2825:72 0.1600736
73 *2825:73 0.007920696
74 *2825:74 0.08306414
75 *2825:75 0.2452132
76 *2825:76 0.2409194
77 *2825:77 0.2409194
78 *2825:78 0.08274915
79 *2825:79 0.1917066
80 *2825:80 0.1080179
81 *2825:81 0.2238265
82 *2825:82 0.00506337
83 *2825:83 0.1157724
84 *2825:84 0.1045319
85 *2825:85 0.2510051
86 *2825:86 0.05343227
87 *2825:87 0.04793363
88 *2825:88 0.04650095

*RES
0 *341:Y *2825:88 1
1 *2825:21 *345:A3 1
2 *2825:21 *2825:20 0.5
3 *2825:20 *2825:19 5.108929
4 *2825:18 *2825:17 0.4946429
5 *2825:19 *2825:18 0.5
6 *2825:17 *344:A3 1
7 *2825:47 *359:A3 1
8 *2825:47 *2825:46 0.5
9 *2825:22 *2825:21 8.637501
10 *2825:23 *2825:22 0.5
11 *2825:46 *2825:45 0.4946429
12 *2825:44 *2825:43 9.180358
13 *2825:45 *2825:44 0.5
14 *2825:43 *2825:42 0.5
15 *2825:42 *2825:41 3.504465
16 *2825:42 *2825:23 2.41875
17 *2825:48 *2825:47 15.15179
18 *2825:49 *2825:48 0.5
19 *2825:87 *2825:86 0.5
20 *2825:86 *2825:85 1.085714
21 *2825:86 *2825:49 1.061607
22 *2825:88 *2825:87 1.308929
23 *2825:84 *2825:83 3.775893
24 *2825:85 *2825:84 0.5
25 *2825:85 *2825:81 8.933037
26 *2825:82 *358:A3 1
27 *2825:25 *357:A3 1
28 *2825:25 *2825:24 0.2825
29 *2825:26 *2825:25 0.5
30 *2825:40 *2825:39 2.666071
31 *2825:41 *2825:40 0.5
32 *2825:39 *2825:38 0.5
33 *2825:38 *2825:37 1.357143
34 *2825:38 *2825:26 1.333036
35 *2825:36 *356:A3 1
36 *2825:36 *2825:35 0.2825
37 *2825:37 *2825:36 0.5
38 *2825:37 *2825:34 5.404464
39 *2825:33 *2825:32 0.5187501
40 *2825:34 *2825:33 0.5
41 *2825:32 *347:A3 1
42 *2825:32 *2825:31 0.5187501
43 *2825:79 *354:A3 1
44 *2825:79 *2825:78 2.147322
45 *2825:80 *2825:79 2.690179
46 *2825:81 *2825:80 0.5
47 *2825:31 *2825:30 0.5
48 *2825:30 *2825:29 2.666071
49 *2825:28 *2825:27 0.4946429
50 *2825:29 *2825:28 0.5
51 *2825:27 *346:A3 1
52 *2825:54 *350:A3 1
53 *2825:54 *2825:53 0.2825
54 *2825:55 *2825:54 0.5
55 *2825:65 *2825:64 0.5
56 *2825:64 *2825:63 1.875893
57 *2825:64 *2825:55 1.061607
58 *2825:66 *351:A3 1
59 *2825:66 *2825:65 5.404465
60 *2825:67 *355:A3 1
61 *2825:67 *2825:66 0.5187501
62 *2825:51 *352:A3 1
63 *2825:51 *2825:50 0.2825
64 *2825:52 *2825:51 0.5
65 *2825:69 *2825:68 5.404465
66 *2825:70 *2825:69 0.5
67 *2825:70 *2825:52 1.061607
68 *2825:72 *2825:71 0.5
69 *2825:71 *2825:70 1.333036
70 *2825:78 *2825:77 0.5
71 *2825:77 *2825:76 10.26607
72 *2825:75 *2825:74 2.147322
73 *2825:75 *2825:72 3.775893
74 *2825:76 *2825:75 0.5
75 *2825:73 *353:A3 0.09166668
76 *2825:74 *2825:73 1
77 *2825:61 *349:A3 1
78 *2825:61 *2825:60 1.604464
79 *2825:62 *2825:61 6.490179
80 *2825:63 *2825:62 0.5
81 *2825:60 *2825:59 0.5
82 *2825:59 *2825:58 7.008929
83 *2825:57 *2825:56 3.751786
84 *2825:58 *2825:57 0.5
85 *2825:56 *348:A3 1
86 *2825:68 *2825:67 0.2714286
87 *2825:83 *2825:82 0.2696429

*END

*D_NET *2848 0.6526295 //LENGTH 8.695 LUMPCC 0 DR

*CONN
*I *493:Y O *L 0 *C 44.824 45.584
*I *413:D I *L 0.543562 *C 37.072 46.192
*N *2848:2 *C 37.072 46.180
*N *2848:3 *C 37.072 46.040
*N *2848:4 *C 37.086 46.040
*N *2848:5 *C 44.811 46.040
*N *2848:6 *C 44.824 46.027
*N *2848:7 *C 44.824 45.598

*CAP
0 *493:Y 0.001
1 *413:D 0.001
2 *2848:2 0.009398518
3 *2848:3 0.0108312
4 *2848:4 0.2831197
5 *2848:5 0.2831197
6 *2848:6 0.03279654
7 *2848:7 0.03136386

*RES
0 *493:Y *2848:7 1
1 *2848:2 *413:D 1
2 *2848:3 *2848:2 0.2325
3 *2848:4 *2848:3 0.5
4 *2848:6 *2848:5 0.5
5 *2848:5 *2848:4 13.79464
6 *2848:7 *2848:6 0.7660715

*END

*D_NET *2853 4.294702 //LENGTH 43.149 LUMPCC 0 DR

*CONN
*I *502:Y O *L 0 *C 25.550 22.782
*I *358:A1 I *L 0.501685 *C 29.320 22.632
*I *359:A1 I *L 0.501685 *C 31.296 17.464
*I *347:A1 I *L 0.501685 *C 25.216 9.256
*I *346:A1 I *L 0.501685 *C 23.696 9.256
*I *356:A1 I *L 0.501685 *C 28.256 10.776
*I *344:A1 I *L 0.501685 *C 35.248 5.912
*I *345:A1 I *L 0.501685 *C 32.360 7.432
*I *357:A1 I *L 0.501685 *C 29.776 10.776
*N *2853:9 *C 29.776 10.594
*N *2853:10 *C 29.776 10.764
*N *2853:11 *C 29.763 10.776
*N *2853:12 *C 32.360 7.419
*N *2853:13 *C 32.360 7.128
*N *2853:14 *C 35.248 5.926
*N *2853:15 *C 35.248 6.203
*N *2853:16 *C 35.235 6.216
*N *2853:17 *C 32.070 6.216
*N *2853:18 *C 32.056 6.230
*N *2853:19 *C 32.056 7.128
*N *2853:20 *C 32.056 7.129
*N *2853:21 *C 32.056 7.432
*N *2853:22 *C 28.726 7.432
*N *2853:23 *C 28.712 7.446
*N *2853:24 *C 28.712 10.763
*N *2853:25 *C 28.712 10.776
*N *2853:26 *C 28.256 10.594
*N *2853:27 *C 28.256 10.764
*N *2853:28 *C 28.256 10.776
*N *2853:29 *C 23.697 9.256
*N *2853:30 *C 23.847 9.256
*N *2853:31 *C 23.861 9.256
*N *2853:32 *C 25.216 9.074
*N *2853:33 *C 25.216 9.244
*N *2853:34 *C 25.216 9.256
*N *2853:35 *C 25.811 9.256
*N *2853:36 *C 25.824 9.270
*N *2853:37 *C 25.824 10.763
*N *2853:38 *C 25.838 10.776
*N *2853:39 *C 26.584 10.776
*N *2853:40 *C 26.584 10.790
*N *2853:41 *C 31.296 17.451
*N *2853:42 *C 31.296 17.174
*N *2853:43 *C 31.283 17.160
*N *2853:44 *C 26.598 17.160
*N *2853:45 *C 26.584 17.160
*N *2853:46 *C 29.320 22.619
*N *2853:47 *C 29.320 22.341
*N *2853:48 *C 29.306 22.328
*N *2853:49 *C 26.598 22.328
*N *2853:50 *C 26.584 22.328
*N *2853:51 *C 26.584 22.771
*N *2853:52 *C 26.569 22.784

*CAP
0 *502:Y 0.05419505
1 *358:A1 0.001
2 *359:A1 0.001
3 *347:A1 0.001
4 *346:A1 0.001
5 *356:A1 0.001
6 *344:A1 0.001
7 *345:A1 0.001
8 *357:A1 0.001
9 *2853:9 0.01712137
10 *2853:10 0.01094426
11 *2853:11 0.05376666
12 *2853:12 0.01423377
13 *2853:13 0.03309386
14 *2853:14 0.01832534
15 *2853:15 0.01975802
16 *2853:16 0.1729326
17 *2853:17 0.1729326
18 *2853:18 0.05764936
19 *2853:19 0.07270455
20 *2853:20 0.01086648
21 *2853:21 0.1402542
22 *2853:22 0.1246432
23 *2853:23 0.1916865
24 *2853:24 0.1916865
25 *2853:25 0.07575435
26 *2853:26 0.01522013
27 *2853:27 0.009043019
28 *2853:28 0.09867428
29 *2853:29 0.005058177
30 *2853:30 0.006490855
31 *2853:31 0.07458157
32 *2853:32 0.01662569
33 *2853:33 0.01044858
34 *2853:34 0.1107352
35 *2853:35 0.03378138
36 *2853:36 0.09860348
37 *2853:37 0.09860348
38 *2853:38 0.03485839
39 *2853:39 0.1139172
40 *2853:40 0.3309081
41 *2853:41 0.02055278
42 *2853:42 0.02198546
43 *2853:43 0.2191432
44 *2853:44 0.2191432
45 *2853:45 0.6347671
46 *2853:46 0.02003848
47 *2853:47 0.02147116
48 *2853:48 0.1185323
49 *2853:49 0.1185323
50 *2853:50 0.32694
51 *2853:51 0.02337787
52 *2853:52 0.05211966

*RES
0 *502:Y *2853:52 2.038
1 *2853:12 *345:A1 1
2 *2853:18 *2853:17 0.5
3 *2853:17 *2853:16 5.651786
4 *2853:15 *2853:14 0.4946429
5 *2853:16 *2853:15 0.5
6 *2853:14 *344:A1 1
7 *2853:10 *357:A1 1
8 *2853:10 *2853:9 0.2825
9 *2853:11 *2853:10 0.5
10 *2853:19 *2853:18 1.604464
11 *2853:19 *2853:13 0.5428572
12 *2853:20 *2853:19 0.5
13 *2853:23 *2853:22 0.5
14 *2853:22 *2853:21 5.947322
15 *2853:24 *2853:23 5.923214
16 *2853:25 *2853:24 0.5
17 *2853:25 *2853:11 1.875893
18 *2853:27 *356:A1 1
19 *2853:27 *2853:26 0.2825
20 *2853:28 *2853:27 0.5
21 *2853:28 *2853:25 0.8142858
22 *2853:50 *2853:49 0.5
23 *2853:50 *2853:45 9.228572
24 *2853:49 *2853:48 4.8375
25 *2853:47 *2853:46 0.4946429
26 *2853:48 *2853:47 0.5
27 *2853:46 *358:A1 1
28 *2853:45 *2853:44 0.5
29 *2853:45 *2853:40 11.37589
30 *2853:44 *2853:43 8.366072
31 *2853:42 *2853:41 0.4946429
32 *2853:43 *2853:42 0.5
33 *2853:41 *359:A1 1
34 *2853:40 *2853:39 0.5
35 *2853:39 *2853:38 1.333036
36 *2853:39 *2853:28 2.985714
37 *2853:52 *2853:51 1
38 *2853:51 *2853:50 0.7901787
39 *2853:37 *2853:36 2.666071
40 *2853:38 *2853:37 0.5
41 *2853:36 *2853:35 0.5
42 *2853:35 *2853:34 1.061607
43 *2853:33 *347:A1 1
44 *2853:33 *2853:32 0.2825
45 *2853:34 *2853:33 0.5
46 *2853:34 *2853:31 2.41875
47 *2853:30 *2853:29 0.2678572
48 *2853:31 *2853:30 0.5
49 *2853:29 *346:A1 1
50 *2853:13 *2853:12 0.5187501
51 *2853:21 *2853:20 0.5410715

*END

*D_NET *2867 0.7218059 //LENGTH 7.285 LUMPCC 0 DR

*CONN
*I *474:Y O *L 0 *C 43.608 27.648
*I *475:A3 I *L 0.519105 *C 44.824 29.168
*I *164:A2 I *L 0.507925 *C 46.344 25.216
*N *2867:3 *C 46.344 25.230
*N *2867:4 *C 46.344 27.787
*N *2867:5 *C 46.331 27.800
*N *2867:6 *C 44.824 29.155
*N *2867:7 *C 44.824 27.814
*N *2867:8 *C 44.824 27.800
*N *2867:9 *C 43.622 27.800
*N *2867:10 *C 43.608 27.788
*N *2867:11 *C 43.608 27.648

*CAP
0 *474:Y 0.001
1 *475:A3 0.001
2 *164:A2 0.001
3 *2867:3 0.1418528
4 *2867:4 0.1432855
5 *2867:5 0.05585953
6 *2867:6 0.09026013
7 *2867:7 0.09169281
8 *2867:8 0.1127858
9 *2867:9 0.05455405
10 *2867:10 0.01497397
11 *2867:11 0.01354129

*RES
0 *474:Y *2867:11 1
1 *2867:4 *2867:3 4.566072
2 *2867:5 *2867:4 0.5
3 *2867:3 *164:A2 1
4 *2867:7 *2867:6 2.394643
5 *2867:8 *2867:7 0.5
6 *2867:8 *2867:5 2.690179
7 *2867:6 *475:A3 1
8 *2867:10 *2867:9 0.5
9 *2867:9 *2867:8 2.147322
10 *2867:11 *2867:10 0.2325

*END

*D_NET *2870 0.968541 //LENGTH 9.106 LUMPCC 0 DR

*CONN
*I *480:Y O *L 0 *C 46.952 33.576
*I *164:A5 I *L 0.532504 *C 45.736 26.128
*N *2870:2 *C 45.736 26.142
*N *2870:3 *C 45.736 26.571
*N *2870:4 *C 45.750 26.584
*N *2870:5 *C 46.787 26.584
*N *2870:6 *C 46.800 26.598
*N *2870:7 *C 46.800 32.360
*N *2870:8 *C 46.952 32.360
*N *2870:9 *C 46.952 33.562

*CAP
0 *480:Y 0.001
1 *164:A5 0.001
2 *2870:2 0.03106361
3 *2870:3 0.03249629
4 *2870:4 0.04444413
5 *2870:5 0.04444413
6 *2870:6 0.3384814
7 *2870:7 0.3484583
8 *2870:8 0.06912574
9 *2870:9 0.05802748

*RES
0 *480:Y *2870:9 1
1 *2870:2 *164:A5 1
2 *2870:3 *2870:2 0.7660714
3 *2870:4 *2870:3 0.5
4 *2870:6 *2870:5 0.5
5 *2870:5 *2870:4 1.851786
6 *2870:9 *2870:8 2.147322
7 *2870:7 *2870:6 10.29018
8 *2870:8 *2870:7 0.2714286

*END

*D_NET *2874 0.6744041 //LENGTH 6.485 LUMPCC 0 DR

*CONN
*I *442:Y O *L 0 *C 43.586 37.528
*I *165:A2 I *L 0.509119 *C 43.456 35.704
*I *486:A I *L 0.582888 *C 43.000 34.184
*I *487:A4 I *L 0.514778 *C 41.176 34.336
*N *2874:4 *C 41.176 34.335
*N *2874:5 *C 41.176 34.198
*N *2874:6 *C 41.190 34.184
*N *2874:7 *C 42.986 34.184
*N *2874:8 *C 43.000 34.198
*N *2874:9 *C 43.000 35.691
*N *2874:10 *C 43.014 35.704
*N *2874:11 *C 43.443 35.704
*N *2874:12 *C 43.456 35.718
*N *2874:13 *C 43.456 37.515
*N *2874:14 *C 43.468 37.528

*CAP
0 *442:Y 0.01382987
1 *165:A2 0.001
2 *486:A 0.001
3 *487:A4 0.001
4 *2874:4 0.01184384
5 *2874:5 0.01327652
6 *2874:6 0.08460883
7 *2874:7 0.08460883
8 *2874:8 0.07641412
9 *2874:9 0.08021902
10 *2874:10 0.0195758
11 *2874:11 0.0195758
12 *2874:12 0.1257977
13 *2874:13 0.1298994
14 *2874:14 0.01175447

*RES
0 *442:Y *2874:14 0.195
1 *2874:14 *2874:13 1
2 *2874:13 *2874:12 3.208929
3 *2874:12 *165:A2 1
4 *2874:12 *2874:11 0.5
5 *2874:11 *2874:10 0.7660714
6 *2874:9 *2874:8 2.666071
7 *2874:10 *2874:9 0.5
8 *2874:8 *486:A 1
9 *2874:8 *2874:7 0.5
10 *2874:7 *2874:6 3.208929
11 *2874:5 *2874:4 0.2455357
12 *2874:6 *2874:5 0.5
13 *2874:4 *487:A4 1

*END

*D_NET *2878 0.2696135 //LENGTH 2.348 LUMPCC 0 DR

*CONN
*I *488:Y O *L 0 *C 42.696 40.720
*I *489:A2 I *L 0.515513 *C 42.741 38.592
*N *2878:2 *C 42.696 38.592
*N *2878:3 *C 42.696 38.605
*N *2878:4 *C 42.696 40.707

*CAP
0 *488:Y 0.001
1 *489:A2 0.01104972
2 *2878:2 0.008974324
3 *2878:3 0.1251595
4 *2878:4 0.12343

*RES
0 *488:Y *2878:4 1
1 *2878:2 *489:A2 0.09166668
2 *2878:3 *2878:2 1
3 *2878:4 *2878:3 3.751786

*END

*D_NET *2879 0.1464348 //LENGTH 1.551 LUMPCC 0 DR

*CONN
*I *491:Y O *L 0 *C 42.240 46.040
*I *492:A4 I *L 0.514778 *C 43.000 45.888
*N *2879:2 *C 43.000 45.876
*N *2879:3 *C 43.000 45.736
*N *2879:4 *C 42.986 45.736
*N *2879:5 *C 42.254 45.736
*N *2879:6 *C 42.240 45.750
*N *2879:7 *C 42.240 46.027

*CAP
0 *491:Y 0.001
1 *492:A4 0.001
2 *2879:2 0.01132758
3 *2879:3 0.01276026
4 *2879:4 0.04048797
5 *2879:5 0.04048797
6 *2879:6 0.02040186
7 *2879:7 0.01896918

*RES
0 *491:Y *2879:7 1
1 *2879:2 *492:A4 1
2 *2879:3 *2879:2 0.2325
3 *2879:4 *2879:3 0.5
4 *2879:6 *2879:5 0.5
5 *2879:5 *2879:4 1.308929
6 *2879:7 *2879:6 0.4946429

*END

*D_NET *2881 0.8168964 //LENGTH 7.584 LUMPCC 0 DR

*CONN
*I *490:Y O *L 0 *C 46.344 43.152
*I *493:A2 I *L 0.501039 *C 45.584 45.736
*I *495:A6 I *L 0.639573 *C 43.152 42.240
*N *2881:3 *C 43.152 42.254
*N *2881:4 *C 43.152 43.595
*N *2881:5 *C 43.166 43.608
*N *2881:6 *C 45.584 45.723
*N *2881:7 *C 45.584 43.622
*N *2881:8 *C 45.584 43.608
*N *2881:9 *C 46.331 43.608
*N *2881:10 *C 46.344 43.595
*N *2881:11 *C 46.344 43.166

*CAP
0 *490:Y 0.001
1 *493:A2 0.001
2 *495:A6 0.001
3 *2881:3 0.08108649
4 *2881:4 0.08251917
5 *2881:5 0.1157238
6 *2881:6 0.1340269
7 *2881:7 0.1354596
8 *2881:8 0.152346
9 *2881:9 0.03425004
10 *2881:10 0.0399287
11 *2881:11 0.03855575

*RES
0 *490:Y *2881:11 1
1 *2881:10 *2881:9 0.5
2 *2881:9 *2881:8 1.333036
3 *2881:11 *2881:10 0.7660716
4 *2881:7 *2881:6 3.751786
5 *2881:8 *2881:7 0.5
6 *2881:8 *2881:5 4.31875
7 *2881:6 *493:A2 1
8 *2881:4 *2881:3 2.394643
9 *2881:5 *2881:4 0.5
10 *2881:3 *495:A6 1

*END

*D_NET *2885 0.7546235 //LENGTH 8.294 LUMPCC 0 DR

*CONN
*I *410:QN O *L 0 *C 34.944 27.952
*I *424:A2 I *L 0.499019 *C 40.112 29.016
*I *426:A2 I *L 0.466516 *C 40.872 29.320
*N *2885:3 *C 40.872 29.319
*N *2885:4 *C 40.872 28.422
*N *2885:5 *C 40.858 28.408
*N *2885:6 *C 40.112 29.003
*N *2885:7 *C 40.112 28.422
*N *2885:8 *C 40.112 28.408
*N *2885:9 *C 34.958 28.408
*N *2885:10 *C 34.944 28.395
*N *2885:11 *C 34.944 27.953

*CAP
0 *410:QN 0.001
1 *424:A2 0.001
2 *426:A2 0.001
3 *2885:3 0.04396209
4 *2885:4 0.04522182
5 *2885:5 0.03852308
6 *2885:6 0.05007903
7 *2885:7 0.05151171
8 *2885:8 0.2592416
9 *2885:9 0.2183464
10 *2885:10 0.02308525
11 *2885:11 0.02165257

*RES
0 *410:QN *2885:11 1
1 *2885:4 *2885:3 1.602679
2 *2885:5 *2885:4 0.5
3 *2885:3 *426:A2 1
4 *2885:7 *2885:6 1.0375
5 *2885:8 *2885:7 0.5
6 *2885:8 *2885:5 1.333036
7 *2885:6 *424:A2 1
8 *2885:10 *2885:9 0.5
9 *2885:9 *2885:8 9.204464
10 *2885:11 *2885:10 0.788393

*END

*D_NET *2887 0.8260034 //LENGTH 7.852 LUMPCC 0 DR

*CONN
*I *416:QN O *L 0 *C 37.224 38.896
*I *444:A3 I *L 0.584801 *C 41.328 37.680
*I *489:A3 I *L 0.539281 *C 42.392 39.048
*N *2887:3 *C 42.392 39.035
*N *2887:4 *C 42.392 38.454
*N *2887:5 *C 42.379 38.440
*N *2887:6 *C 41.328 38.440
*N *2887:7 *C 41.328 37.694
*N *2887:8 *C 41.328 38.730
*N *2887:9 *C 41.328 38.743
*N *2887:10 *C 37.238 38.744
*N *2887:11 *C 37.224 38.758
*N *2887:12 *C 37.224 38.895

*CAP
0 *416:QN 0.001
1 *444:A3 0.001
2 *489:A3 0.001
3 *2887:3 0.0377751
4 *2887:4 0.03920778
5 *2887:5 0.05008469
6 *2887:6 0.06484187
7 *2887:7 0.07678453
8 *2887:8 0.07821721
9 *2887:9 0.235189
10 *2887:10 0.222804
11 *2887:11 0.009765992
12 *2887:12 0.008333314

*RES
0 *416:QN *2887:12 1
1 *2887:4 *2887:3 1.0375
2 *2887:5 *2887:4 0.5
3 *2887:3 *489:A3 1
4 *2887:8 *2887:7 1.851786
5 *2887:9 *2887:8 0.5
6 *2887:9 *2887:6 0.5410715
7 *2887:7 *444:A3 1
8 *2887:11 *2887:10 0.5
9 *2887:10 *2887:9 7.304464
10 *2887:12 *2887:11 0.2455357
11 *2887:6 *2887:5 1.875893

*END

*D_NET *2890 0.2913736 //LENGTH 2.694 LUMPCC 0 DR

*CONN
*I *417:QN O *L 0 *C 40.568 35.552
*I *444:A4 I *L 0.565045 *C 41.146 37.553
*N *2890:2 *C 40.583 37.528
*N *2890:3 *C 40.568 37.515
*N *2890:4 *C 40.568 35.553

*CAP
0 *417:QN 0.001
1 *444:A4 0.03754595
2 *2890:2 0.03547055
3 *2890:3 0.1095433
4 *2890:4 0.1078138

*RES
0 *417:QN *2890:4 1
1 *2890:2 *444:A4 1.126
2 *2890:3 *2890:2 1
3 *2890:4 *2890:3 3.502679

*END

*D_NET *2892 0.06255234 //LENGTH 0.396 LUMPCC 0 DR

*CONN
*I *413:QN O *L 0 *C 40.902 46.040
*I *491:A3 I *L 0.456834 *C 41.298 46.064

*CAP
0 *413:QN 0.03127617
1 *491:A3 0.03127617

*RES
0 *413:QN *491:A3 0.7920001

*END

*D_NET *2893 0.1629134 //LENGTH 1.805 LUMPCC 0 DR

*CONN
*I *418:QN O *L 0 *C 40.264 34.640
*I *487:A3 I *L 0.539281 *C 41.480 34.488
*N *2893:2 *C 41.480 34.306
*N *2893:3 *C 41.480 34.476
*N *2893:4 *C 41.467 34.488
*N *2893:5 *C 40.278 34.488
*N *2893:6 *C 40.264 34.502
*N *2893:7 *C 40.264 34.639

*CAP
0 *418:QN 0.001
1 *487:A3 0.001
2 *2893:2 0.01936341
3 *2893:3 0.0131863
4 *2893:4 0.05561857
5 *2893:5 0.05561857
6 *2893:6 0.009279629
7 *2893:7 0.007846951

*RES
0 *418:QN *2893:7 1
1 *2893:3 *487:A3 1
2 *2893:3 *2893:2 0.2825
3 *2893:4 *2893:3 0.5
4 *2893:6 *2893:5 0.5
5 *2893:5 *2893:4 2.123214
6 *2893:7 *2893:6 0.2455357

*END

*D_NET *2896 1.410133 //LENGTH 14.408 LUMPCC 0 DR

*CONN
*I *416:Q O *L 0 *C 37.376 39.048
*I *442:A1 I *L 0.666174 *C 43.760 37.680
*I *320:A4 I *L 0.513828 *C 46.040 35.856
*I *489:A1 I *L 0.484201 *C 43.000 39.352
*N *2896:4 *C 43.000 39.339
*N *2896:5 *C 46.040 35.870
*N *2896:6 *C 46.040 38.123
*N *2896:7 *C 46.027 38.136
*N *2896:8 *C 43.760 37.694
*N *2896:9 *C 43.760 38.123
*N *2896:10 *C 43.760 38.136
*N *2896:11 *C 43.014 38.136
*N *2896:12 *C 43.000 38.150
*N *2896:13 *C 43.000 38.744
*N *2896:14 *C 42.986 38.744
*N *2896:15 *C 42.406 38.744
*N *2896:16 *C 42.392 38.758
*N *2896:17 *C 42.392 39.339
*N *2896:18 *C 42.379 39.352
*N *2896:19 *C 37.390 39.352
*N *2896:20 *C 37.376 39.339
*N *2896:21 *C 37.376 39.062

*CAP
0 *416:Q 0.001
1 *442:A1 0.001
2 *320:A4 0.001
3 *489:A1 0.001
4 *2896:4 0.03747071
5 *2896:5 0.1367548
6 *2896:6 0.1381875
7 *2896:7 0.1004616
8 *2896:8 0.03262923
9 *2896:9 0.03406191
10 *2896:10 0.1369239
11 *2896:11 0.03409008
12 *2896:12 0.0332463
13 *2896:13 0.07452191
14 *2896:14 0.03502264
15 *2896:15 0.03502319
16 *2896:16 0.02495728
17 *2896:17 0.02495728
18 *2896:18 0.2467861
19 *2896:19 0.2467855
20 *2896:20 0.01784296
21 *2896:21 0.01641029

*RES
0 *416:Q *2896:21 1
1 *2896:6 *2896:5 4.023215
2 *2896:7 *2896:6 0.5
3 *2896:5 *320:A4 1
4 *2896:9 *2896:8 0.7660715
5 *2896:10 *2896:9 0.5
6 *2896:10 *2896:7 4.047321
7 *2896:8 *442:A1 1
8 *2896:4 *489:A1 1
9 *2896:12 *2896:11 0.5
10 *2896:11 *2896:10 1.333036
11 *2896:13 *2896:12 1.061607
12 *2896:13 *2896:4 1.061607
13 *2896:14 *2896:13 0.5
14 *2896:15 *2896:14 1.0375
15 *2896:16 *2896:15 0.5
16 *2896:18 *2896:17 0.5
17 *2896:17 *2896:16 1.0375
18 *2896:20 *2896:19 0.5
19 *2896:19 *2896:18 8.908929
20 *2896:21 *2896:20 0.4946429

*END

*D_NET *2900 1.995357 //LENGTH 19.683 LUMPCC 0 DR

*CONN
*I *410:Q O *L 0 *C 35.096 27.800
*I *419:A1 I *L 0.530735 *C 41.632 27.496
*I *427:A1 I *L 0.610599 *C 41.328 30.840
*I *425:A2 I *L 0.509119 *C 40.568 31.144
*I *473:A1 I *L 0.549073 *C 43.152 29.016
*I *471:A3 I *L 0.634415 *C 46.648 31.144
*N *2900:6 *C 35.096 27.618
*N *2900:7 *C 46.648 31.131
*N *2900:8 *C 46.648 30.550
*N *2900:9 *C 46.635 30.536
*N *2900:10 *C 43.152 29.017
*N *2900:11 *C 43.152 30.523
*N *2900:12 *C 43.152 30.536
*N *2900:13 *C 40.568 31.131
*N *2900:14 *C 40.568 30.550
*N *2900:15 *C 40.582 30.536
*N *2900:16 *C 41.328 30.827
*N *2900:17 *C 41.328 30.550
*N *2900:18 *C 41.328 30.536
*N *2900:19 *C 41.632 30.536
*N *2900:20 *C 41.632 30.523
*N *2900:21 *C 41.632 27.510
*N *2900:22 *C 41.632 27.800
*N *2900:23 *C 41.619 27.800
*N *2900:24 *C 35.110 27.800
*N *2900:25 *C 35.096 27.788

*CAP
0 *410:Q 0.001
1 *419:A1 0.001
2 *427:A1 0.001
3 *425:A2 0.001
4 *473:A1 0.001
5 *471:A3 0.001
6 *2900:6 0.01461646
7 *2900:7 0.04146285
8 *2900:8 0.04289553
9 *2900:9 0.1426558
10 *2900:10 0.1106255
11 *2900:11 0.1120582
12 *2900:12 0.2012393
13 *2900:13 0.03631621
14 *2900:14 0.03774889
15 *2900:15 0.03211096
16 *2900:16 0.02570453
17 *2900:17 0.0271372
18 *2900:18 0.04485279
19 *2900:19 0.06895303
20 *2900:20 0.184963
21 *2900:21 0.01846953
22 *2900:22 0.2072375
23 *2900:23 0.3159353
24 *2900:24 0.3159353
25 *2900:25 0.008439343

*RES
0 *410:Q *2900:25 1
1 *2900:8 *2900:7 1.0375
2 *2900:9 *2900:8 0.5
3 *2900:7 *471:A3 1
4 *2900:11 *2900:10 2.688393
5 *2900:12 *2900:11 0.5
6 *2900:12 *2900:9 6.21875
7 *2900:10 *473:A1 1
8 *2900:20 *2900:19 0.5
9 *2900:19 *2900:18 0.5428572
10 *2900:19 *2900:12 2.714286
11 *2900:21 *419:A1 1
12 *2900:17 *2900:16 0.4946429
13 *2900:18 *2900:17 0.5
14 *2900:18 *2900:15 1.333036
15 *2900:16 *427:A1 1
16 *2900:14 *2900:13 1.0375
17 *2900:15 *2900:14 0.5
18 *2900:13 *425:A2 1
19 *2900:22 *2900:21 0.5187501
20 *2900:22 *2900:20 4.861608
21 *2900:23 *2900:22 0.5
22 *2900:25 *2900:24 0.5
23 *2900:25 *2900:6 0.2825
24 *2900:24 *2900:23 11.62321

*END

*D_NET *2904 2.257652 //LENGTH 24.863 LUMPCC 0 DR

*CONN
*I *497:Q O *L 0 *C 32.664 44.520
*I *169:A3 I *L 0.539281 *C 46.192 44.520
*I *494:A1 I *L 0.545966 *C 45.432 42.696
*I *431:A1 I *L 0.549073 *C 47.256 41.176
*I *432:A1 I *L 0.666174 *C 41.328 42.544
*I *491:A1 I *L 0.545966 *C 41.632 46.040
*N *2904:6 *C 32.664 44.338
*N *2904:7 *C 41.632 46.027
*N *2904:8 *C 41.632 45.750
*N *2904:9 *C 41.619 45.736
*N *2904:10 *C 41.342 45.736
*N *2904:11 *C 41.328 45.723
*N *2904:12 *C 41.328 42.558
*N *2904:13 *C 47.256 41.044
*N *2904:14 *C 47.256 41.163
*N *2904:15 *C 47.242 41.176
*N *2904:16 *C 45.446 41.176
*N *2904:17 *C 45.432 41.190
*N *2904:18 *C 45.432 42.696
*N *2904:19 *C 46.192 44.507
*N *2904:20 *C 46.192 42.710
*N *2904:21 *C 46.178 42.696
*N *2904:22 *C 45.432 42.696
*N *2904:23 *C 45.432 42.999
*N *2904:24 *C 45.432 43.000
*N *2904:25 *C 45.432 43.291
*N *2904:26 *C 45.419 43.304
*N *2904:27 *C 41.342 43.304
*N *2904:28 *C 41.328 43.304
*N *2904:29 *C 41.328 44.520
*N *2904:30 *C 41.315 44.520
*N *2904:31 *C 32.678 44.520
*N *2904:32 *C 32.664 44.508

*CAP
0 *497:Q 0.001
1 *169:A3 0.001
2 *494:A1 0.001
3 *431:A1 0.001
4 *432:A1 0.001
5 *491:A1 0.001
6 *2904:6 0.01595286
7 *2904:7 0.02118525
8 *2904:8 0.02261793
9 *2904:9 0.0173304
10 *2904:10 0.0173304
11 *2904:11 0.0704293
12 *2904:12 0.05000195
13 *2904:13 0.01447598
14 *2904:14 0.006322017
15 *2904:15 0.07544372
16 *2904:16 0.07742057
17 *2904:17 0.07613079
18 *2904:18 0.08969192
19 *2904:19 0.1069675
20 *2904:20 0.1084002
21 *2904:21 0.03109339
22 *2904:22 0.04579094
23 *2904:23 0.009953115
24 *2904:24 0.03330763
25 *2904:25 0.01831381
26 *2904:26 0.1912409
27 *2904:27 0.1912409
28 *2904:28 0.1232961
29 *2904:29 0.1422908
30 *2904:30 0.3428241
31 *2904:31 0.3428241
32 *2904:32 0.009775749

*RES
0 *497:Q *2904:32 1
1 *2904:24 *2904:23 0.5
2 *2904:24 *2904:18 0.5428572
3 *2904:23 *2904:22 0.5410715
4 *2904:20 *2904:19 3.208929
5 *2904:21 *2904:20 0.5
6 *2904:19 *169:A3 1
7 *2904:18 *494:A1 1
8 *2904:18 *2904:17 2.690179
9 *2904:17 *2904:16 0.5
10 *2904:16 *2904:15 3.208929
11 *2904:14 *431:A1 1
12 *2904:14 *2904:13 0.1991667
13 *2904:15 *2904:14 0.5
14 *2904:11 *2904:10 0.5
15 *2904:10 *2904:9 0.4946429
16 *2904:8 *2904:7 0.4946429
17 *2904:9 *2904:8 0.5
18 *2904:7 *491:A1 1
19 *2904:25 *2904:24 0.5187501
20 *2904:26 *2904:25 0.5
21 *2904:28 *2904:27 0.5
22 *2904:28 *2904:12 1.333036
23 *2904:27 *2904:26 7.280358
24 *2904:12 *432:A1 1
25 *2904:29 *2904:28 2.171429
26 *2904:29 *2904:11 2.147322
27 *2904:30 *2904:29 0.5
28 *2904:32 *2904:31 0.5
29 *2904:32 *2904:6 0.2825
30 *2904:31 *2904:30 15.42322
31 *2904:22 *2904:21 1.333036

*END

*D_NET *2913 0.3184955 //LENGTH 3.654 LUMPCC 0 DR

*CONN
*I *201:Y O *L 0 *C 47.104 12.752
*I *202:A5 I *L 0.557577 *C 45.280 14.120
*N *2913:2 *C 45.280 13.938
*N *2913:3 *C 45.280 14.107
*N *2913:4 *C 45.294 14.120
*N *2913:5 *C 47.091 14.120
*N *2913:6 *C 47.104 14.107
*N *2913:7 *C 47.104 12.766

*CAP
0 *201:Y 0.001
1 *202:A5 0.001
2 *2913:2 0.01995704
3 *2913:3 0.01377993
4 *2913:4 0.07980253
5 *2913:5 0.07980253
6 *2913:6 0.06229309
7 *2913:7 0.06086041

*RES
0 *201:Y *2913:7 1
1 *2913:3 *202:A5 1
2 *2913:3 *2913:2 0.2825
3 *2913:4 *2913:3 0.5
4 *2913:6 *2913:5 0.5
5 *2913:5 *2913:4 3.208929
6 *2913:7 *2913:6 2.394643

*END

*D_NET *2916 0.4016391 //LENGTH 4.591 LUMPCC 0 DR

*CONN
*I *274:Y O *L 0 *C 33.424 14.272
*I *80:A4 I *L 0.443333 *C 32.360 17.464
*N *2916:2 *C 32.360 17.451
*N *2916:3 *C 32.360 14.438
*N *2916:4 *C 32.373 14.424
*N *2916:5 *C 33.410 14.424
*N *2916:6 *C 33.424 14.412
*N *2916:7 *C 33.424 14.272

*CAP
0 *274:Y 0.001
1 *80:A4 0.001
2 *2916:2 0.1481401
3 *2916:3 0.1495728
4 *2916:4 0.04124045
5 *2916:5 0.04124045
6 *2916:6 0.01043899
7 *2916:7 0.009006317

*RES
0 *274:Y *2916:7 1
1 *2916:2 *80:A4 1
2 *2916:3 *2916:2 5.380358
3 *2916:4 *2916:3 0.5
4 *2916:6 *2916:5 0.5
5 *2916:5 *2916:4 1.851786
6 *2916:7 *2916:6 0.2325

*END

*D_NET *2919 0.5868133 //LENGTH 5.630 LUMPCC 0 DR

*CONN
*I *80:Y O *L 0 *C 33.272 18.224
*I *105:A2 I *L 0.45541 *C 29.168 19.288
*N *2919:2 *C 29.168 19.106
*N *2919:3 *C 29.168 19.276
*N *2919:4 *C 29.181 19.288
*N *2919:5 *C 33.259 19.288
*N *2919:6 *C 33.272 19.274
*N *2919:7 *C 33.272 18.238

*CAP
0 *80:Y 0.001
1 *105:A2 0.001
2 *2919:2 0.01803947
3 *2919:3 0.01186235
4 *2919:4 0.1998979
5 *2919:5 0.1998979
6 *2919:6 0.07793795
7 *2919:7 0.07717784

*RES
0 *80:Y *2919:7 1
1 *2919:3 *105:A2 1
2 *2919:3 *2919:2 0.2825
3 *2919:4 *2919:3 0.5
4 *2919:6 *2919:5 0.5
5 *2919:5 *2919:4 7.280358
6 *2919:7 *2919:6 1.851786

*END

