*SPEF "1481-1998"
*DESIGN "alarm_clock_top"
*DATE "Sat Aug 15 08:59:49 2026"
*VENDOR "Synopsys, Inc."
*PROGRAM "icc2 /home/vlsi/SynopsysTools/icc2/W-2024.09-SP1/linux64/nwtn/bin/icc2_exec"
*VERSION "W-2024.09-SP1 Oct 17, 2024"
*DESIGN_FLOW "ICC2 SPEF DR"
*DIVIDER /
*DELIMITER :
*BUS_DELIMITER [ ]
*T_UNIT 1 NS
*C_UNIT 1 FF
*R_UNIT 1 OHM
*L_UNIT 1 HENRY

// XY_UNIT 1 UM
// PARASITIC_TECH tlu_min at 125.000 degree

*NAME_MAP
*1 clock
*2 key[3]
*3 key[2]
*4 key[1]
*5 key[0]
*6 reset
*7 time_button
*8 alarm_button
*9 fastwatch
*10 ms_hour[7]
*11 ms_hour[6]
*12 ms_hour[5]
*13 ms_hour[4]
*14 ms_hour[3]
*15 ms_hour[2]
*16 ms_hour[1]
*17 ms_hour[0]
*18 ls_hour[7]
*19 ls_hour[6]
*20 ls_hour[5]
*21 ls_hour[4]
*22 ls_hour[3]
*23 ls_hour[2]
*24 ls_hour[1]
*25 ls_hour[0]
*26 ms_minute[7]
*27 ms_minute[6]
*28 ms_minute[5]
*29 ms_minute[4]
*30 ms_minute[3]
*31 ms_minute[2]
*32 ms_minute[1]
*33 ms_minute[0]
*34 ls_minute[7]
*35 ls_minute[6]
*36 ls_minute[5]
*37 ls_minute[4]
*38 ls_minute[3]
*39 ls_minute[2]
*40 ls_minute[1]
*41 ls_minute[0]
*42 alarm_sound
*43 VDD
*44 VSS
*45 U110
*46 U112
*47 U113
*48 U114
*49 U115
*50 U116
*51 U117
*52 U118
*53 U119
*54 U120
*55 U121
*56 U122
*57 U123
*58 U124
*59 U125
*60 U126
*61 U127
*62 U128
*63 U129
*64 U130
*65 U131
*66 U132
*67 U133
*68 U134
*69 U135
*70 U136
*71 U137
*72 U138
*73 U139
*74 tgen1/ctmTdsLR_1_45
*75 U141
*76 U142
*77 U143
*78 tgen1/ctmTdsLR_1_46
*79 ctmTdsLR_1_41
*80 ctmTdsLR_2_42
*81 ctmTdsLR_3_43
*82 U149
*83 U150
*84 U151
*85 U152
*86 ctmTdsLR_4_44
*87 tgen1/ctmTdsLR_1_47
*88 U155
*89 U156
*90 U157
*91 U158
*92 U159
*93 U160
*94 U161
*95 U162
*96 U163
*97 U164
*98 U165
*99 U166
*100 U167
*101 U168
*102 U169
*103 U170
*104 tgen1/ctmTdsLR_1_48
*105 U172
*106 U173
*107 U174
*108 U175
*109 U176
*110 U177
*111 U178
*112 U179
*113 U180
*114 U181
*115 U182
*116 U183
*117 U184
*118 ZCTSBUF_2973_86
*119 HFSINV_107_3
*120 U79
*121 U81
*122 U83
*123 U85
*124 U87
*125 U89
*126 U91
*127 U93
*128 U95
*129 U97
*130 U99
*131 U101
*132 U103
*133 U105
*134 U107
*135 U109
*136 tgen1/count_reg[0]
*137 tgen1/count_reg[13]
*138 HFSBUF_2695_11
*139 tgen1/U4
*140 tgen1/U5
*141 tgen1/U6
*142 tgen1/U7
*143 tgen1/U8
*144 tgen1/U9
*145 tgen1/U10
*146 tgen1/U11
*147 tgen1/U12
*148 tgen1/U13
*149 tgen1/U14
*150 tgen1/U15
*151 tgen1/U16
*152 tgen1/U17
*153 tgen1/U18
*154 tgen1/U19
*155 tgen1/U20
*156 tgen1/U21
*157 tgen1/U22
*158 fsm1/HFSINV_1227_4
*159 tgen1/U24
*160 tgen1/U25
*161 tgen1/U26
*162 ZCTSBUF_479_87
*163 ctosc_gls_inst_192
*164 fsm1/ctmTdsLR_1_55
*165 fsm1/ctmTdsLR_1_56
*166 tgen1/ctmTdsLR_1_57
*167 ZBUF_324_inst_201
*168 ZBUF_91_inst_202
*169 fsm1/ctmTdsLR_1_35
*170 fsm1/ctmTdsLR_1_36
*171 ZBUF_597_inst_203
*172 ZBUF_1182_inst_204
*173 xofiller!SHFILL1_RVT!x57600y50000
*174 xofiller!SHFILL1_RVT!x77360y50000
*175 xofiller!SHFILL1_RVT!x78880y50000
*176 xofiller!SHFILL1_RVT!x80400y50000
*177 xofiller!SHFILL1_RVT!x81920y50000
*178 xofiller!SHFILL1_RVT!x91040y50000
*179 xofiller!SHFILL1_RVT!x92560y50000
*180 xofiller!SHFILL1_RVT!x94080y50000
*181 xofiller!SHFILL1_RVT!x95600y50000
*182 xofiller!SHFILL1_RVT!x314480y50000
*183 xofiller!SHFILL1_RVT!x316000y50000
*184 xofiller!SHFILL1_RVT!x325120y50000
*185 xofiller!SHFILL1_RVT!x326640y50000
*186 xofiller!SHFILL1_RVT!x328160y50000
*187 xofiller!SHFILL1_RVT!x329680y50000
*188 xofiller!SHFILL1_RVT!x331200y50000
*189 xofiller!SHFILL1_RVT!x355520y50000
*190 xofiller!SHFILL1_RVT!x357040y50000
*191 xofiller!SHFILL1_RVT!x401120y50000
*192 xofiller!SHFILL1_RVT!x420880y50000
*193 xofiller!SHFILL1_RVT!x440640y50000
*194 xofiller!SHFILL1_RVT!x442160y50000
*195 xofiller!SHFILL1_RVT!x451280y50000
*196 xofiller!SHFILL1_RVT!x452800y50000
*197 xofiller!SHFILL1_RVT!x461920y50000
*198 xofiller!SHFILL1_RVT!x463440y50000
*199 xofiller!SHFILL1_RVT!x464960y50000
*200 xofiller!SHFILL1_RVT!x466480y50000
*201 count1/ctmTdsLR_1_29
*202 count1/ctmTdsLR_2_30
*203 tgen1/U55
*204 tgen1/ctmTdsLR_1_25
*205 tgen1/ctmTdsLR_2_26
*206 count1/ctmTdsLR_1_31
*207 tgen1/U60
*208 tgen1/ctmTdsLR_1_27
*209 tgen1/ctmTdsLR_2_28
*210 count1/ctmTdsLR_1_32
*211 tgen1/U67
*212 tgen1/U68
*213 tgen1/U69
*214 tgen1/U70
*215 xofiller!SHFILL1_RVT!x468000y50000
*216 xofiller!SHFILL1_RVT!x50000y66720
*217 xofiller!SHFILL1_RVT!x51520y66720
*218 xofiller!SHFILL1_RVT!x53040y66720
*219 xofiller!SHFILL1_RVT!x54560y66720
*220 xofiller!SHFILL1_RVT!x56080y66720
*221 tgen1/U73
*222 tgen1/one_second_reg
*223 tgen1/count_reg[9]
*224 tgen1/one_minute_reg_reg
*225 tgen1/count_reg[2]
*226 tgen1/count_reg[7]
*227 tgen1/count_reg[6]
*228 tgen1/count_reg[5]
*229 tgen1/count_reg[10]
*230 tgen1/count_reg[11]
*231 tgen1/count_reg[4]
*232 tgen1/count_reg[1]
*233 tgen1/count_reg[8]
*234 tgen1/count_reg[3]
*235 tgen1/count_reg[12]
*236 count1/ctmTdsLR_2_33
*237 count1/current_time_ls_min_reg[1]
*238 count1/current_time_ls_min_reg[2]
*239 count1/current_time_ls_min_reg[3]
*240 count1/current_time_ms_min_reg[0]
*241 count1/current_time_ms_min_reg[1]
*242 count1/current_time_ms_min_reg[2]
*243 count1/current_time_ms_hr_reg[0]
*244 count1/current_time_ms_hr_reg[2]
*245 count1/current_time_ls_hr_reg[0]
*246 count1/current_time_ls_hr_reg[1]
*247 count1/current_time_ls_hr_reg[2]
*248 count1/current_time_ls_hr_reg[3]
*249 count1/current_time_ms_hr_reg[1]
*250 count1/current_time_ms_hr_reg[3]
*251 keyreg1/HFSBUF_810_5
*252 count1/U5
*253 count1/U6
*254 count1/U7
*255 count1/U8
*256 count1/U9
*257 count1/U10
*258 count1/U11
*259 count1/U12
*260 count1/U13
*261 count1/U14
*262 count1/U15
*263 count1/U16
*264 count1/U17
*265 tgen1/ctmTdsLR_1_34
*266 count1/U19
*267 count1/U20
*268 count1/U21
*269 count1/U22
*270 count1/U23
*271 ctmTdsLR_1_37
*272 count1/U25
*273 count1/U26
*274 ctmTdsLR_2_38
*275 count1/U29
*276 count1/U30
*277 count1/U31
*278 count1/U32
*279 count1/U33
*280 count1/U34
*281 count1/U35
*282 count1/U36
*283 count1/U37
*284 count1/U38
*285 count1/U39
*286 count1/U40
*287 count1/U41
*288 count1/U42
*289 count1/U43
*290 count1/U44
*291 count1/U45
*292 count1/U46
*293 count1/U47
*294 count1/U48
*295 count1/ctmTdsLR_1_40
*296 count1/U50
*297 tgen1/ctmTdsLR_1_49
*298 count1/U52
*299 count1/U53
*300 count1/U54
*301 count1/U55
*302 count1/U56
*303 count1/U57
*304 xofiller!SHFILL1_RVT!x57600y66720
*305 xofiller!SHFILL1_RVT!x59120y66720
*306 xofiller!SHFILL1_RVT!x60640y66720
*307 xofiller!SHFILL1_RVT!x62160y66720
*308 xofiller!SHFILL1_RVT!x63680y66720
*309 xofiller!SHFILL1_RVT!x65200y66720
*310 tgen1/ctmTdsLR_1_50
*311 tgen1/ctmTdsLR_1_51
*312 tgen1/ctmTdsLR_1_52
*313 count1/U64
*314 count1/U65
*315 count1/U66
*316 count1/U67
*317 count1/U68
*318 count1/U69
*319 count1/U70
*320 fsm1/ctmTdsLR_1_53
*321 count1/ctmTdsLR_1_54
*322 count1/U74
*323 count1/U75
*324 count1/U76
*325 count1/U77
*326 count1/U78
*327 count1/U79
*328 count1/U80
*329 count1/U81
*330 count1/U82
*331 count1/U83
*332 xofiller!SHFILL1_RVT!x66720y66720
*333 xofiller!SHFILL1_RVT!x68240y66720
*334 xofiller!SHFILL1_RVT!x69760y66720
*335 xofiller!SHFILL1_RVT!x71280y66720
*336 xofiller!SHFILL1_RVT!x72800y66720
*337 xofiller!SHFILL1_RVT!x74320y66720
*338 xofiller!SHFILL1_RVT!x75840y66720
*339 count1/current_time_ls_min_reg[0]
*340 count1/current_time_ms_min_reg[3]
*341 alreg1/HFSBUF_812_8
*342 xofiller!SHFILL1_RVT!x95600y66720
*343 xofiller!SHFILL1_RVT!x97120y66720
*344 alreg1/U4
*345 alreg1/U5
*346 alreg1/U6
*347 alreg1/U7
*348 alreg1/U8
*349 alreg1/U9
*350 alreg1/U10
*351 alreg1/U11
*352 alreg1/U12
*353 alreg1/U13
*354 alreg1/U14
*355 alreg1/U15
*356 alreg1/U16
*357 alreg1/U17
*358 alreg1/U18
*359 alreg1/U19
*360 alreg1/alarm_time_ms_min_reg[3]
*361 alreg1/alarm_time_ms_min_reg[2]
*362 alreg1/alarm_time_ms_min_reg[1]
*363 alreg1/alarm_time_ms_min_reg[0]
*364 alreg1/alarm_time_ms_hr_reg[3]
*365 alreg1/alarm_time_ms_hr_reg[2]
*366 alreg1/alarm_time_ms_hr_reg[1]
*367 alreg1/alarm_time_ms_hr_reg[0]
*368 alreg1/alarm_time_ls_min_reg[3]
*369 alreg1/alarm_time_ls_min_reg[2]
*370 alreg1/alarm_time_ls_min_reg[1]
*371 alreg1/alarm_time_ls_min_reg[0]
*372 alreg1/alarm_time_ls_hr_reg[3]
*373 alreg1/alarm_time_ls_hr_reg[2]
*374 alreg1/alarm_time_ls_hr_reg[1]
*375 alreg1/alarm_time_ls_hr_reg[0]
*376 keyreg1/HFSINV_841_6
*377 HFSINV_5240_15
*378 keyreg1/U4
*379 keyreg1/U5
*380 keyreg1/U6
*381 keyreg1/U7
*382 keyreg1/U8
*383 keyreg1/U9
*384 keyreg1/U10
*385 keyreg1/U11
*386 keyreg1/U12
*387 keyreg1/U13
*388 keyreg1/U14
*389 keyreg1/U15
*390 keyreg1/U16
*391 keyreg1/U17
*392 keyreg1/U18
*393 keyreg1/U19
*394 keyreg1/key_buffer_ms_min_reg[3]
*395 keyreg1/key_buffer_ms_min_reg[2]
*396 keyreg1/key_buffer_ms_min_reg[1]
*397 keyreg1/key_buffer_ms_min_reg[0]
*398 keyreg1/key_buffer_ms_hr_reg[3]
*399 keyreg1/key_buffer_ms_hr_reg[2]
*400 keyreg1/key_buffer_ms_hr_reg[1]
*401 keyreg1/key_buffer_ms_hr_reg[0]
*402 keyreg1/key_buffer_ls_hr_reg[3]
*403 keyreg1/key_buffer_ls_hr_reg[2]
*404 keyreg1/key_buffer_ls_hr_reg[1]
*405 keyreg1/key_buffer_ls_hr_reg[0]
*406 keyreg1/key_buffer_ls_min_reg[3]
*407 keyreg1/key_buffer_ls_min_reg[2]
*408 keyreg1/key_buffer_ls_min_reg[1]
*409 keyreg1/key_buffer_ls_min_reg[0]
*410 fsm1/pre_state_reg[0]
*411 fsm1/count2_reg[1]
*412 fsm1/count2_reg[2]
*413 fsm1/count2_reg[3]
*414 fsm1/pre_state_reg[2]
*415 fsm1/pre_state_reg[1]
*416 fsm1/count1_reg[1]
*417 fsm1/count1_reg[2]
*418 fsm1/count1_reg[3]
*419 fsm1/U3
*420 xofiller!SHFILL1_RVT!x98640y66720
*421 xofiller!SHFILL1_RVT!x100160y66720
*422 xofiller!SHFILL1_RVT!x101680y66720
*423 alreg1/HFSINV_828_9
*424 fsm1/U7
*425 fsm1/U8
*426 fsm1/U9
*427 fsm1/U10
*428 fsm1/U11
*429 fsm1/U12
*430 fsm1/U13
*431 fsm1/U14
*432 fsm1/U15
*433 fsm1/U16
*434 xofiller!SHFILL1_RVT!x103200y66720
*435 xofiller!SHFILL1_RVT!x104720y66720
*436 xofiller!SHFILL1_RVT!x106240y66720
*437 xofiller!SHFILL1_RVT!x107760y66720
*438 xofiller!SHFILL1_RVT!x109280y66720
*439 xofiller!SHFILL1_RVT!x110800y66720
*440 xofiller!SHFILL1_RVT!x112320y66720
*441 xofiller!SHFILL1_RVT!x113840y66720
*442 fsm1/U20
*443 fsm1/U21
*444 fsm1/U22
*445 fsm1/U23
*446 xofiller!SHFILL1_RVT!x115360y66720
*447 xofiller!SHFILL1_RVT!x116880y66720
*448 xofiller!SHFILL1_RVT!x118400y66720
*449 xofiller!SHFILL1_RVT!x119920y66720
*450 xofiller!SHFILL1_RVT!x121440y66720
*451 xofiller!SHFILL1_RVT!x122960y66720
*452 xofiller!SHFILL1_RVT!x124480y66720
*453 xofiller!SHFILL1_RVT!x126000y66720
*454 xofiller!SHFILL1_RVT!x127520y66720
*455 xofiller!SHFILL1_RVT!x129040y66720
*456 fsm1/U28
*457 xofiller!SHFILL1_RVT!x130560y66720
*458 xofiller!SHFILL1_RVT!x132080y66720
*459 xofiller!SHFILL1_RVT!x133600y66720
*460 xofiller!SHFILL1_RVT!x135120y66720
*461 xofiller!SHFILL1_RVT!x136640y66720
*462 xofiller!SHFILL1_RVT!x138160y66720
*463 xofiller!SHFILL1_RVT!x139680y66720
*464 xofiller!SHFILL1_RVT!x141200y66720
*465 fsm1/U32
*466 fsm1/U33
*467 fsm1/U34
*468 fsm1/U35
*469 fsm1/U36
*470 fsm1/U37
*471 fsm1/U38
*472 fsm1/U39
*473 fsm1/U40
*474 fsm1/U41
*475 fsm1/U42
*476 fsm1/U43
*477 xofiller!SHFILL1_RVT!x142720y66720
*478 xofiller!SHFILL1_RVT!x144240y66720
*479 xofiller!SHFILL1_RVT!x145760y66720
*480 fsm1/U45
*481 xofiller!SHFILL1_RVT!x147280y66720
*482 xofiller!SHFILL1_RVT!x148800y66720
*483 xofiller!SHFILL1_RVT!x150320y66720
*484 fsm1/U47
*485 fsm1/U48
*486 fsm1/U49
*487 fsm1/U50
*488 fsm1/U51
*489 fsm1/U52
*490 fsm1/U53
*491 fsm1/U54
*492 fsm1/U55
*493 fsm1/U56
*494 fsm1/U57
*495 fsm1/U58
*496 fsm1/U59
*497 fsm1/count2_reg[0]
*498 fsm1/count1_reg[0]
*499 fsm1/HFSBUF_152_0
*500 HFSBUF_389_1
*501 HFSBUF_113_2
*502 alreg1/HFSBUF_1134_10
*503 xofiller!SHFILL1_RVT!x151840y66720
*504 tgen1/ctmTdsLR_1_20
*505 count1/ctmTdsLR_1_21
*506 count1/ctmTdsLR_1_22
*507 count1/ctmTdsLR_2_23
*508 count1/ctmTdsLR_3_24
*509 xofiller!SHFILL1_RVT!x153360y66720
*510 xofiller!SHFILL1_RVT!x154880y66720
*511 xofiller!SHFILL1_RVT!x156400y66720
*512 xofiller!SHFILL1_RVT!x157920y66720
*513 xofiller!SHFILL1_RVT!x159440y66720
*514 xofiller!SHFILL1_RVT!x183760y66720
*515 xofiller!SHFILL1_RVT!x185280y66720
*516 xofiller!SHFILL1_RVT!x186800y66720
*517 xofiller!SHFILL1_RVT!x188320y66720
*518 xofiller!SHFILL1_RVT!x189840y66720
*519 xofiller!SHFILL1_RVT!x191360y66720
*520 xofiller!SHFILL1_RVT!x192880y66720
*521 xofiller!SHFILL1_RVT!x194400y66720
*522 xofiller!SHFILL1_RVT!x195920y66720
*523 xofiller!SHFILL1_RVT!x197440y66720
*524 xofiller!SHFILL1_RVT!x198960y66720
*525 xofiller!SHFILL1_RVT!x200480y66720
*526 xofiller!SHFILL1_RVT!x202000y66720
*527 xofiller!SHFILL1_RVT!x203520y66720
*528 xofiller!SHFILL1_RVT!x205040y66720
*529 xofiller!SHFILL1_RVT!x206560y66720
*530 xofiller!SHFILL1_RVT!x208080y66720
*531 xofiller!SHFILL1_RVT!x209600y66720
*532 xofiller!SHFILL1_RVT!x211120y66720
*533 xofiller!SHFILL1_RVT!x212640y66720
*534 xofiller!SHFILL1_RVT!x214160y66720
*535 xofiller!SHFILL1_RVT!x215680y66720
*536 xofiller!SHFILL1_RVT!x217200y66720
*537 xofiller!SHFILL1_RVT!x218720y66720
*538 xofiller!SHFILL1_RVT!x220240y66720
*539 xofiller!SHFILL1_RVT!x221760y66720
*540 xofiller!SHFILL1_RVT!x223280y66720
*541 xofiller!SHFILL1_RVT!x224800y66720
*542 xofiller!SHFILL1_RVT!x226320y66720
*543 xofiller!SHFILL1_RVT!x227840y66720
*544 xofiller!SHFILL1_RVT!x229360y66720
*545 xofiller!SHFILL1_RVT!x230880y66720
*546 xofiller!SHFILL1_RVT!x232400y66720
*547 xofiller!SHFILL1_RVT!x233920y66720
*548 xofiller!SHFILL1_RVT!x235440y66720
*549 xofiller!SHFILL1_RVT!x236960y66720
*550 xofiller!SHFILL1_RVT!x238480y66720
*551 xofiller!SHFILL1_RVT!x240000y66720
*552 xofiller!SHFILL1_RVT!x241520y66720
*553 xofiller!SHFILL1_RVT!x243040y66720
*554 xofiller!SHFILL1_RVT!x244560y66720
*555 xofiller!SHFILL1_RVT!x246080y66720
*556 xofiller!SHFILL1_RVT!x247600y66720
*557 xofiller!SHFILL1_RVT!x249120y66720
*558 xofiller!SHFILL1_RVT!x250640y66720
*559 xofiller!SHFILL1_RVT!x252160y66720
*560 xofiller!SHFILL1_RVT!x253680y66720
*561 xofiller!SHFILL1_RVT!x255200y66720
*562 xofiller!SHFILL1_RVT!x256720y66720
*563 xofiller!SHFILL1_RVT!x258240y66720
*564 xofiller!SHFILL1_RVT!x259760y66720
*565 xofiller!SHFILL1_RVT!x261280y66720
*566 xofiller!SHFILL1_RVT!x262800y66720
*567 xofiller!SHFILL1_RVT!x264320y66720
*568 xofiller!SHFILL1_RVT!x265840y66720
*569 xofiller!SHFILL1_RVT!x267360y66720
*570 xofiller!SHFILL1_RVT!x268880y66720
*571 xofiller!SHFILL1_RVT!x270400y66720
*572 xofiller!SHFILL1_RVT!x271920y66720
*573 xofiller!SHFILL1_RVT!x273440y66720
*574 xofiller!SHFILL1_RVT!x274960y66720
*575 xofiller!SHFILL1_RVT!x276480y66720
*576 xofiller!SHFILL1_RVT!x278000y66720
*577 xofiller!SHFILL1_RVT!x279520y66720
*578 xofiller!SHFILL1_RVT!x281040y66720
*579 xofiller!SHFILL1_RVT!x282560y66720
*580 xofiller!SHFILL1_RVT!x284080y66720
*581 xofiller!SHFILL1_RVT!x285600y66720
*582 xofiller!SHFILL1_RVT!x287120y66720
*583 xofiller!SHFILL1_RVT!x288640y66720
*584 xofiller!SHFILL1_RVT!x290160y66720
*585 xofiller!SHFILL1_RVT!x291680y66720
*586 xofiller!SHFILL1_RVT!x293200y66720
*587 xofiller!SHFILL1_RVT!x294720y66720
*588 xofiller!SHFILL1_RVT!x296240y66720
*589 xofiller!SHFILL1_RVT!x297760y66720
*590 xofiller!SHFILL1_RVT!x299280y66720
*591 xofiller!SHFILL1_RVT!x300800y66720
*592 xofiller!SHFILL1_RVT!x302320y66720
*593 xofiller!SHFILL1_RVT!x303840y66720
*594 xofiller!SHFILL1_RVT!x305360y66720
*595 xofiller!SHFILL1_RVT!x306880y66720
*596 xofiller!SHFILL1_RVT!x308400y66720
*597 xofiller!SHFILL1_RVT!x309920y66720
*598 xofiller!SHFILL1_RVT!x326640y66720
*599 xofiller!SHFILL1_RVT!x328160y66720
*600 xofiller!SHFILL1_RVT!x329680y66720
*601 xofiller!SHFILL1_RVT!x331200y66720
*602 xofiller!SHFILL1_RVT!x332720y66720
*603 xofiller!SHFILL1_RVT!x341840y66720
*604 xofiller!SHFILL1_RVT!x343360y66720
*605 xofiller!SHFILL1_RVT!x344880y66720
*606 xofiller!SHFILL1_RVT!x346400y66720
*607 xofiller!SHFILL1_RVT!x347920y66720
*608 xofiller!SHFILL1_RVT!x349440y66720
*609 xofiller!SHFILL1_RVT!x350960y66720
*610 xofiller!SHFILL1_RVT!x352480y66720
*611 xofiller!SHFILL1_RVT!x373760y66720
*612 xofiller!SHFILL1_RVT!x395040y66720
*613 xofiller!SHFILL1_RVT!x419360y66720
*614 xofiller!SHFILL1_RVT!x420880y66720
*615 xofiller!SHFILL1_RVT!x422400y66720
*616 xofiller!SHFILL1_RVT!x423920y66720
*617 xofiller!SHFILL1_RVT!x425440y66720
*618 xofiller!SHFILL1_RVT!x426960y66720
*619 xofiller!SHFILL1_RVT!x428480y66720
*620 xofiller!SHFILL1_RVT!x430000y66720
*621 xofiller!SHFILL1_RVT!x431520y66720
*622 xofiller!SHFILL1_RVT!x448240y66720
*623 xofiller!SHFILL1_RVT!x468000y66720
*624 xofiller!SHFILL1_RVT!x50000y83440
*625 xofiller!SHFILL1_RVT!x51520y83440
*626 xofiller!SHFILL1_RVT!x53040y83440
*627 xofiller!SHFILL1_RVT!x54560y83440
*628 xofiller!SHFILL1_RVT!x56080y83440
*629 xofiller!SHFILL1_RVT!x57600y83440
*630 xofiller!SHFILL1_RVT!x59120y83440
*631 xofiller!SHFILL1_RVT!x60640y83440
*632 xofiller!SHFILL1_RVT!x62160y83440
*633 xofiller!SHFILL1_RVT!x63680y83440
*634 xofiller!SHFILL1_RVT!x65200y83440
*635 xofiller!SHFILL1_RVT!x66720y83440
*636 xofiller!SHFILL1_RVT!x68240y83440
*637 xofiller!SHFILL1_RVT!x77360y83440
*638 xofiller!SHFILL1_RVT!x78880y83440
*639 xofiller!SHFILL1_RVT!x80400y83440
*640 xofiller!SHFILL1_RVT!x94080y83440
*641 xofiller!SHFILL1_RVT!x95600y83440
*642 xofiller!SHFILL1_RVT!x97120y83440
*643 xofiller!SHFILL1_RVT!x121440y83440
*644 xofiller!SHFILL1_RVT!x168560y83440
*645 xofiller!SHFILL1_RVT!x170080y83440
*646 xofiller!SHFILL1_RVT!x217200y83440
*647 xofiller!SHFILL1_RVT!x218720y83440
*648 xofiller!SHFILL1_RVT!x220240y83440
*649 xofiller!SHFILL1_RVT!x221760y83440
*650 xofiller!SHFILL1_RVT!x223280y83440
*651 xofiller!SHFILL1_RVT!x255200y83440
*652 xofiller!SHFILL1_RVT!x256720y83440
*653 xofiller!SHFILL1_RVT!x258240y83440
*654 xofiller!SHFILL1_RVT!x350960y83440
*655 xofiller!SHFILL1_RVT!x352480y83440
*656 xofiller!SHFILL1_RVT!x354000y83440
*657 xofiller!SHFILL1_RVT!x355520y83440
*658 xofiller!SHFILL1_RVT!x357040y83440
*659 xofiller!SHFILL1_RVT!x358560y83440
*660 xofiller!SHFILL1_RVT!x360080y83440
*661 xofiller!SHFILL1_RVT!x361600y83440
*662 xofiller!SHFILL1_RVT!x363120y83440
*663 xofiller!SHFILL1_RVT!x382880y83440
*664 xofiller!SHFILL1_RVT!x384400y83440
*665 xofiller!SHFILL1_RVT!x385920y83440
*666 xofiller!SHFILL1_RVT!x387440y83440
*667 xofiller!SHFILL1_RVT!x388960y83440
*668 xofiller!SHFILL1_RVT!x390480y83440
*669 xofiller!SHFILL1_RVT!x392000y83440
*670 xofiller!SHFILL1_RVT!x393520y83440
*671 xofiller!SHFILL1_RVT!x395040y83440
*672 xofiller!SHFILL1_RVT!x396560y83440
*673 xofiller!SHFILL1_RVT!x398080y83440
*674 xofiller!SHFILL1_RVT!x399600y83440
*675 xofiller!SHFILL1_RVT!x401120y83440
*676 xofiller!SHFILL1_RVT!x402640y83440
*677 xofiller!SHFILL1_RVT!x404160y83440
*678 xofiller!SHFILL1_RVT!x405680y83440
*679 xofiller!SHFILL1_RVT!x407200y83440
*680 xofiller!SHFILL1_RVT!x408720y83440
*681 xofiller!SHFILL1_RVT!x410240y83440
*682 xofiller!SHFILL1_RVT!x411760y83440
*683 xofiller!SHFILL1_RVT!x413280y83440
*684 xofiller!SHFILL1_RVT!x414800y83440
*685 xofiller!SHFILL1_RVT!x416320y83440
*686 xofiller!SHFILL1_RVT!x417840y83440
*687 xofiller!SHFILL1_RVT!x439120y83440
*688 xofiller!SHFILL1_RVT!x440640y83440
*689 xofiller!SHFILL1_RVT!x442160y83440
*690 xofiller!SHFILL1_RVT!x443680y83440
*691 xofiller!SHFILL1_RVT!x50000y100160
*692 xofiller!SHFILL1_RVT!x51520y100160
*693 xofiller!SHFILL1_RVT!x53040y100160
*694 xofiller!SHFILL1_RVT!x160960y100160
*695 xofiller!SHFILL1_RVT!x162480y100160
*696 xofiller!SHFILL1_RVT!x366160y100160
*697 xofiller!SHFILL1_RVT!x367680y100160
*698 xofiller!SHFILL1_RVT!x402640y100160
*699 xofiller!SHFILL1_RVT!x404160y100160
*700 xofiller!SHFILL1_RVT!x425440y100160
*701 xofiller!SHFILL1_RVT!x426960y100160
*702 xofiller!SHFILL1_RVT!x428480y100160
*703 xofiller!SHFILL1_RVT!x430000y100160
*704 xofiller!SHFILL1_RVT!x449760y100160
*705 xofiller!SHFILL1_RVT!x451280y100160
*706 xofiller!SHFILL1_RVT!x452800y100160
*707 xofiller!SHFILL1_RVT!x454320y100160
*708 xofiller!SHFILL1_RVT!x455840y100160
*709 xofiller!SHFILL1_RVT!x457360y100160
*710 xofiller!SHFILL1_RVT!x458880y100160
*711 xofiller!SHFILL1_RVT!x460400y100160
*712 xofiller!SHFILL1_RVT!x461920y100160
*713 xofiller!SHFILL1_RVT!x463440y100160
*714 xofiller!SHFILL1_RVT!x464960y100160
*715 xofiller!SHFILL1_RVT!x466480y100160
*716 xofiller!SHFILL1_RVT!x468000y100160
*717 xofiller!SHFILL1_RVT!x469520y100160
*718 xofiller!SHFILL1_RVT!x471040y100160
*719 xofiller!SHFILL1_RVT!x472560y100160
*720 xofiller!SHFILL1_RVT!x474080y100160
*721 xofiller!SHFILL1_RVT!x475600y100160
*722 xofiller!SHFILL1_RVT!x50000y116880
*723 xofiller!SHFILL1_RVT!x51520y116880
*724 xofiller!SHFILL1_RVT!x53040y116880
*725 xofiller!SHFILL1_RVT!x54560y116880
*726 xofiller!SHFILL1_RVT!x56080y116880
*727 xofiller!SHFILL1_RVT!x57600y116880
*728 xofiller!SHFILL1_RVT!x59120y116880
*729 xofiller!SHFILL1_RVT!x60640y116880
*730 xofiller!SHFILL1_RVT!x62160y116880
*731 xofiller!SHFILL1_RVT!x63680y116880
*732 xofiller!SHFILL1_RVT!x65200y116880
*733 xofiller!SHFILL1_RVT!x66720y116880
*734 xofiller!SHFILL1_RVT!x68240y116880
*735 xofiller!SHFILL1_RVT!x69760y116880
*736 xofiller!SHFILL1_RVT!x71280y116880
*737 xofiller!SHFILL1_RVT!x72800y116880
*738 xofiller!SHFILL1_RVT!x74320y116880
*739 xofiller!SHFILL1_RVT!x75840y116880
*740 xofiller!SHFILL1_RVT!x77360y116880
*741 xofiller!SHFILL1_RVT!x78880y116880
*742 xofiller!SHFILL1_RVT!x80400y116880
*743 xofiller!SHFILL1_RVT!x81920y116880
*744 xofiller!SHFILL1_RVT!x83440y116880
*745 xofiller!SHFILL1_RVT!x84960y116880
*746 xofiller!SHFILL1_RVT!x86480y116880
*747 xofiller!SHFILL1_RVT!x88000y116880
*748 xofiller!SHFILL1_RVT!x89520y116880
*749 xofiller!SHFILL1_RVT!x91040y116880
*750 xofiller!SHFILL1_RVT!x92560y116880
*751 xofiller!SHFILL1_RVT!x94080y116880
*752 xofiller!SHFILL1_RVT!x95600y116880
*753 xofiller!SHFILL1_RVT!x97120y116880
*754 xofiller!SHFILL1_RVT!x98640y116880
*755 xofiller!SHFILL1_RVT!x100160y116880
*756 xofiller!SHFILL1_RVT!x101680y116880
*757 xofiller!SHFILL1_RVT!x103200y116880
*758 xofiller!SHFILL1_RVT!x104720y116880
*759 xofiller!SHFILL1_RVT!x106240y116880
*760 xofiller!SHFILL1_RVT!x107760y116880
*761 xofiller!SHFILL1_RVT!x109280y116880
*762 xofiller!SHFILL1_RVT!x110800y116880
*763 xofiller!SHFILL1_RVT!x112320y116880
*764 xofiller!SHFILL1_RVT!x113840y116880
*765 xofiller!SHFILL1_RVT!x115360y116880
*766 xofiller!SHFILL1_RVT!x116880y116880
*767 xofiller!SHFILL1_RVT!x118400y116880
*768 xofiller!SHFILL1_RVT!x119920y116880
*769 xofiller!SHFILL1_RVT!x121440y116880
*770 xofiller!SHFILL1_RVT!x122960y116880
*771 xofiller!SHFILL1_RVT!x124480y116880
*772 xofiller!SHFILL1_RVT!x126000y116880
*773 xofiller!SHFILL1_RVT!x127520y116880
*774 xofiller!SHFILL1_RVT!x129040y116880
*775 xofiller!SHFILL1_RVT!x130560y116880
*776 xofiller!SHFILL1_RVT!x132080y116880
*777 xofiller!SHFILL1_RVT!x133600y116880
*778 xofiller!SHFILL1_RVT!x135120y116880
*779 xofiller!SHFILL1_RVT!x136640y116880
*780 xofiller!SHFILL1_RVT!x138160y116880
*781 xofiller!SHFILL1_RVT!x139680y116880
*782 xofiller!SHFILL1_RVT!x141200y116880
*783 xofiller!SHFILL1_RVT!x142720y116880
*784 xofiller!SHFILL1_RVT!x144240y116880
*785 xofiller!SHFILL1_RVT!x145760y116880
*786 xofiller!SHFILL1_RVT!x147280y116880
*787 xofiller!SHFILL1_RVT!x148800y116880
*788 xofiller!SHFILL1_RVT!x150320y116880
*789 xofiller!SHFILL1_RVT!x151840y116880
*790 xofiller!SHFILL1_RVT!x153360y116880
*791 xofiller!SHFILL1_RVT!x154880y116880
*792 xofiller!SHFILL1_RVT!x156400y116880
*793 xofiller!SHFILL1_RVT!x157920y116880
*794 xofiller!SHFILL1_RVT!x159440y116880
*795 xofiller!SHFILL1_RVT!x160960y116880
*796 xofiller!SHFILL1_RVT!x162480y116880
*797 xofiller!SHFILL1_RVT!x164000y116880
*798 xofiller!SHFILL1_RVT!x165520y116880
*799 xofiller!SHFILL1_RVT!x167040y116880
*800 xofiller!SHFILL1_RVT!x168560y116880
*801 xofiller!SHFILL1_RVT!x185280y116880
*802 xofiller!SHFILL1_RVT!x186800y116880
*803 xofiller!SHFILL1_RVT!x188320y116880
*804 xofiller!SHFILL1_RVT!x189840y116880
*805 xofiller!SHFILL1_RVT!x191360y116880
*806 xofiller!SHFILL1_RVT!x192880y116880
*807 xofiller!SHFILL1_RVT!x194400y116880
*808 xofiller!SHFILL1_RVT!x211120y116880
*809 xofiller!SHFILL1_RVT!x212640y116880
*810 xofiller!SHFILL1_RVT!x214160y116880
*811 xofiller!SHFILL1_RVT!x215680y116880
*812 xofiller!SHFILL1_RVT!x217200y116880
*813 xofiller!SHFILL1_RVT!x218720y116880
*814 xofiller!SHFILL1_RVT!x235440y116880
*815 xofiller!SHFILL1_RVT!x236960y116880
*816 xofiller!SHFILL1_RVT!x303840y116880
*817 xofiller!SHFILL1_RVT!x305360y116880
*818 xofiller!SHFILL1_RVT!x306880y116880
*819 xofiller!SHFILL1_RVT!x308400y116880
*820 xofiller!SHFILL1_RVT!x309920y116880
*821 xofiller!SHFILL1_RVT!x311440y116880
*822 xofiller!SHFILL1_RVT!x312960y116880
*823 xofiller!SHFILL1_RVT!x314480y116880
*824 xofiller!SHFILL1_RVT!x316000y116880
*825 xofiller!SHFILL1_RVT!x317520y116880
*826 xofiller!SHFILL1_RVT!x319040y116880
*827 xofiller!SHFILL1_RVT!x320560y116880
*828 xofiller!SHFILL1_RVT!x322080y116880
*829 xofiller!SHFILL1_RVT!x323600y116880
*830 xofiller!SHFILL1_RVT!x325120y116880
*831 xofiller!SHFILL1_RVT!x326640y116880
*832 xofiller!SHFILL1_RVT!x328160y116880
*833 xofiller!SHFILL1_RVT!x329680y116880
*834 xofiller!SHFILL1_RVT!x331200y116880
*835 xofiller!SHFILL1_RVT!x332720y116880
*836 xofiller!SHFILL1_RVT!x334240y116880
*837 xofiller!SHFILL1_RVT!x335760y116880
*838 xofiller!SHFILL1_RVT!x337280y116880
*839 xofiller!SHFILL1_RVT!x338800y116880
*840 xofiller!SHFILL1_RVT!x340320y116880
*841 xofiller!SHFILL1_RVT!x341840y116880
*842 xofiller!SHFILL1_RVT!x343360y116880
*843 xofiller!SHFILL1_RVT!x344880y116880
*844 xofiller!SHFILL1_RVT!x346400y116880
*845 xofiller!SHFILL1_RVT!x347920y116880
*846 xofiller!SHFILL1_RVT!x349440y116880
*847 xofiller!SHFILL1_RVT!x350960y116880
*848 xofiller!SHFILL1_RVT!x352480y116880
*849 xofiller!SHFILL1_RVT!x354000y116880
*850 xofiller!SHFILL1_RVT!x355520y116880
*851 xofiller!SHFILL1_RVT!x357040y116880
*852 xofiller!SHFILL1_RVT!x358560y116880
*853 xofiller!SHFILL1_RVT!x360080y116880
*854 xofiller!SHFILL1_RVT!x361600y116880
*855 xofiller!SHFILL1_RVT!x363120y116880
*856 xofiller!SHFILL1_RVT!x364640y116880
*857 xofiller!SHFILL1_RVT!x366160y116880
*858 xofiller!SHFILL1_RVT!x367680y116880
*859 xofiller!SHFILL1_RVT!x369200y116880
*860 xofiller!SHFILL1_RVT!x370720y116880
*861 xofiller!SHFILL1_RVT!x372240y116880
*862 xofiller!SHFILL1_RVT!x373760y116880
*863 xofiller!SHFILL1_RVT!x375280y116880
*864 xofiller!SHFILL1_RVT!x376800y116880
*865 xofiller!SHFILL1_RVT!x378320y116880
*866 xofiller!SHFILL1_RVT!x379840y116880
*867 xofiller!SHFILL1_RVT!x381360y116880
*868 xofiller!SHFILL1_RVT!x382880y116880
*869 xofiller!SHFILL1_RVT!x384400y116880
*870 xofiller!SHFILL1_RVT!x385920y116880
*871 xofiller!SHFILL1_RVT!x387440y116880
*872 xofiller!SHFILL1_RVT!x388960y116880
*873 xofiller!SHFILL1_RVT!x390480y116880
*874 xofiller!SHFILL1_RVT!x392000y116880
*875 xofiller!SHFILL1_RVT!x405680y116880
*876 xofiller!SHFILL1_RVT!x407200y116880
*877 xofiller!SHFILL1_RVT!x408720y116880
*878 xofiller!SHFILL1_RVT!x410240y116880
*879 xofiller!SHFILL1_RVT!x411760y116880
*880 xofiller!SHFILL1_RVT!x413280y116880
*881 xofiller!SHFILL1_RVT!x414800y116880
*882 xofiller!SHFILL1_RVT!x416320y116880
*883 xofiller!SHFILL1_RVT!x417840y116880
*884 xofiller!SHFILL1_RVT!x419360y116880
*885 xofiller!SHFILL1_RVT!x420880y116880
*886 xofiller!SHFILL1_RVT!x422400y116880
*887 xofiller!SHFILL1_RVT!x439120y116880
*888 xofiller!SHFILL1_RVT!x440640y116880
*889 xofiller!SHFILL1_RVT!x442160y116880
*890 xofiller!SHFILL1_RVT!x443680y116880
*891 xofiller!SHFILL1_RVT!x445200y116880
*892 xofiller!SHFILL1_RVT!x446720y116880
*893 xofiller!SHFILL1_RVT!x448240y116880
*894 xofiller!SHFILL1_RVT!x50000y133600
*895 xofiller!SHFILL1_RVT!x68240y133600
*896 xofiller!SHFILL1_RVT!x69760y133600
*897 xofiller!SHFILL1_RVT!x116880y133600
*898 xofiller!SHFILL1_RVT!x118400y133600
*899 xofiller!SHFILL1_RVT!x119920y133600
*900 xofiller!SHFILL1_RVT!x167040y133600
*901 xofiller!SHFILL1_RVT!x168560y133600
*902 xofiller!SHFILL1_RVT!x170080y133600
*903 xofiller!SHFILL1_RVT!x171600y133600
*904 xofiller!SHFILL1_RVT!x173120y133600
*905 xofiller!SHFILL1_RVT!x174640y133600
*906 xofiller!SHFILL1_RVT!x176160y133600
*907 xofiller!SHFILL1_RVT!x177680y133600
*908 xofiller!SHFILL1_RVT!x224800y133600
*909 xofiller!SHFILL1_RVT!x226320y133600
*910 xofiller!SHFILL1_RVT!x227840y133600
*911 xofiller!SHFILL1_RVT!x244560y133600
*912 xofiller!SHFILL1_RVT!x246080y133600
*913 xofiller!SHFILL1_RVT!x247600y133600
*914 xofiller!SHFILL1_RVT!x249120y133600
*915 xofiller!SHFILL1_RVT!x250640y133600
*916 xofiller!SHFILL1_RVT!x252160y133600
*917 xofiller!SHFILL1_RVT!x253680y133600
*918 xofiller!SHFILL1_RVT!x255200y133600
*919 xofiller!SHFILL1_RVT!x256720y133600
*920 xofiller!SHFILL1_RVT!x258240y133600
*921 xofiller!SHFILL1_RVT!x259760y133600
*922 xofiller!SHFILL1_RVT!x261280y133600
*923 xofiller!SHFILL1_RVT!x262800y133600
*924 xofiller!SHFILL1_RVT!x264320y133600
*925 xofiller!SHFILL1_RVT!x265840y133600
*926 xofiller!SHFILL1_RVT!x267360y133600
*927 xofiller!SHFILL1_RVT!x268880y133600
*928 xofiller!SHFILL1_RVT!x270400y133600
*929 xofiller!SHFILL1_RVT!x271920y133600
*930 xofiller!SHFILL1_RVT!x273440y133600
*931 xofiller!SHFILL1_RVT!x274960y133600
*932 xofiller!SHFILL1_RVT!x276480y133600
*933 xofiller!SHFILL1_RVT!x278000y133600
*934 xofiller!SHFILL1_RVT!x279520y133600
*935 xofiller!SHFILL1_RVT!x281040y133600
*936 xofiller!SHFILL1_RVT!x282560y133600
*937 xofiller!SHFILL1_RVT!x284080y133600
*938 xofiller!SHFILL1_RVT!x285600y133600
*939 xofiller!SHFILL1_RVT!x287120y133600
*940 xofiller!SHFILL1_RVT!x288640y133600
*941 xofiller!SHFILL1_RVT!x290160y133600
*942 xofiller!SHFILL1_RVT!x291680y133600
*943 xofiller!SHFILL1_RVT!x293200y133600
*944 xofiller!SHFILL1_RVT!x306880y133600
*945 xofiller!SHFILL1_RVT!x308400y133600
*946 xofiller!SHFILL1_RVT!x420880y133600
*947 xofiller!SHFILL1_RVT!x422400y133600
*948 xofiller!SHFILL1_RVT!x423920y133600
*949 xofiller!SHFILL1_RVT!x425440y133600
*950 xofiller!SHFILL1_RVT!x426960y133600
*951 xofiller!SHFILL1_RVT!x428480y133600
*952 xofiller!SHFILL1_RVT!x430000y133600
*953 xofiller!SHFILL1_RVT!x443680y133600
*954 xofiller!SHFILL1_RVT!x463440y133600
*955 xofiller!SHFILL1_RVT!x474080y133600
*956 xofiller!SHFILL1_RVT!x475600y133600
*957 xofiller!SHFILL1_RVT!x50000y150320
*958 xofiller!SHFILL1_RVT!x51520y150320
*959 xofiller!SHFILL1_RVT!x53040y150320
*960 xofiller!SHFILL1_RVT!x54560y150320
*961 xofiller!SHFILL1_RVT!x56080y150320
*962 xofiller!SHFILL1_RVT!x57600y150320
*963 xofiller!SHFILL1_RVT!x77360y150320
*964 xofiller!SHFILL1_RVT!x78880y150320
*965 xofiller!SHFILL1_RVT!x80400y150320
*966 xofiller!SHFILL1_RVT!x81920y150320
*967 xofiller!SHFILL1_RVT!x83440y150320
*968 xofiller!SHFILL1_RVT!x84960y150320
*969 xofiller!SHFILL1_RVT!x86480y150320
*970 xofiller!SHFILL1_RVT!x88000y150320
*971 xofiller!SHFILL1_RVT!x89520y150320
*972 xofiller!SHFILL1_RVT!x91040y150320
*973 xofiller!SHFILL1_RVT!x92560y150320
*974 xofiller!SHFILL1_RVT!x94080y150320
*975 xofiller!SHFILL1_RVT!x95600y150320
*976 xofiller!SHFILL1_RVT!x97120y150320
*977 xofiller!SHFILL1_RVT!x98640y150320
*978 xofiller!SHFILL1_RVT!x100160y150320
*979 xofiller!SHFILL1_RVT!x185280y150320
*980 xofiller!SHFILL1_RVT!x186800y150320
*981 xofiller!SHFILL1_RVT!x188320y150320
*982 xofiller!SHFILL1_RVT!x189840y150320
*983 xofiller!SHFILL1_RVT!x191360y150320
*984 xofiller!SHFILL1_RVT!x192880y150320
*985 xofiller!SHFILL1_RVT!x194400y150320
*986 xofiller!SHFILL1_RVT!x195920y150320
*987 xofiller!SHFILL1_RVT!x197440y150320
*988 xofiller!SHFILL1_RVT!x198960y150320
*989 xofiller!SHFILL1_RVT!x200480y150320
*990 xofiller!SHFILL1_RVT!x202000y150320
*991 xofiller!SHFILL1_RVT!x203520y150320
*992 xofiller!SHFILL1_RVT!x205040y150320
*993 xofiller!SHFILL1_RVT!x206560y150320
*994 xofiller!SHFILL1_RVT!x208080y150320
*995 xofiller!SHFILL1_RVT!x209600y150320
*996 xofiller!SHFILL1_RVT!x211120y150320
*997 xofiller!SHFILL1_RVT!x212640y150320
*998 xofiller!SHFILL1_RVT!x214160y150320
*999 xofiller!SHFILL1_RVT!x215680y150320
*1000 xofiller!SHFILL1_RVT!x217200y150320
*1001 xofiller!SHFILL1_RVT!x218720y150320
*1002 xofiller!SHFILL1_RVT!x220240y150320
*1003 xofiller!SHFILL1_RVT!x221760y150320
*1004 xofiller!SHFILL1_RVT!x223280y150320
*1005 xofiller!SHFILL1_RVT!x224800y150320
*1006 xofiller!SHFILL1_RVT!x226320y150320
*1007 xofiller!SHFILL1_RVT!x227840y150320
*1008 xofiller!SHFILL1_RVT!x229360y150320
*1009 xofiller!SHFILL1_RVT!x246080y150320
*1010 xofiller!SHFILL1_RVT!x247600y150320
*1011 xofiller!SHFILL1_RVT!x314480y150320
*1012 xofiller!SHFILL1_RVT!x316000y150320
*1013 xofiller!SHFILL1_RVT!x385920y150320
*1014 xofiller!SHFILL1_RVT!x387440y150320
*1015 xofiller!SHFILL1_RVT!x431520y150320
*1016 xofiller!SHFILL1_RVT!x445200y150320
*1017 xofiller!SHFILL1_RVT!x446720y150320
*1018 xofiller!SHFILL1_RVT!x448240y150320
*1019 xofiller!SHFILL1_RVT!x475600y150320
*1020 xofiller!SHFILL1_RVT!x50000y167040
*1021 xofiller!SHFILL1_RVT!x68240y167040
*1022 xofiller!SHFILL1_RVT!x69760y167040
*1023 xofiller!SHFILL1_RVT!x71280y167040
*1024 xofiller!SHFILL1_RVT!x118400y167040
*1025 xofiller!SHFILL1_RVT!x119920y167040
*1026 xofiller!SHFILL1_RVT!x121440y167040
*1027 xofiller!SHFILL1_RVT!x122960y167040
*1028 xofiller!SHFILL1_RVT!x124480y167040
*1029 xofiller!SHFILL1_RVT!x126000y167040
*1030 xofiller!SHFILL1_RVT!x127520y167040
*1031 xofiller!SHFILL1_RVT!x129040y167040
*1032 xofiller!SHFILL1_RVT!x130560y167040
*1033 xofiller!SHFILL1_RVT!x132080y167040
*1034 xofiller!SHFILL1_RVT!x133600y167040
*1035 xofiller!SHFILL1_RVT!x135120y167040
*1036 xofiller!SHFILL1_RVT!x136640y167040
*1037 xofiller!SHFILL1_RVT!x138160y167040
*1038 xofiller!SHFILL1_RVT!x139680y167040
*1039 xofiller!SHFILL1_RVT!x141200y167040
*1040 xofiller!SHFILL1_RVT!x142720y167040
*1041 xofiller!SHFILL1_RVT!x144240y167040
*1042 xofiller!SHFILL1_RVT!x145760y167040
*1043 xofiller!SHFILL1_RVT!x147280y167040
*1044 xofiller!SHFILL1_RVT!x148800y167040
*1045 xofiller!SHFILL1_RVT!x150320y167040
*1046 xofiller!SHFILL1_RVT!x151840y167040
*1047 xofiller!SHFILL1_RVT!x153360y167040
*1048 xofiller!SHFILL1_RVT!x154880y167040
*1049 xofiller!SHFILL1_RVT!x156400y167040
*1050 xofiller!SHFILL1_RVT!x157920y167040
*1051 xofiller!SHFILL1_RVT!x159440y167040
*1052 xofiller!SHFILL1_RVT!x160960y167040
*1053 xofiller!SHFILL1_RVT!x162480y167040
*1054 xofiller!SHFILL1_RVT!x164000y167040
*1055 xofiller!SHFILL1_RVT!x180720y167040
*1056 xofiller!SHFILL1_RVT!x227840y167040
*1057 xofiller!SHFILL1_RVT!x244560y167040
*1058 xofiller!SHFILL1_RVT!x246080y167040
*1059 xofiller!SHFILL1_RVT!x316000y167040
*1060 xofiller!SHFILL1_RVT!x317520y167040
*1061 xofiller!SHFILL1_RVT!x319040y167040
*1062 xofiller!SHFILL1_RVT!x335760y167040
*1063 xofiller!SHFILL1_RVT!x337280y167040
*1064 xofiller!SHFILL1_RVT!x338800y167040
*1065 xofiller!SHFILL1_RVT!x340320y167040
*1066 xofiller!SHFILL1_RVT!x341840y167040
*1067 xofiller!SHFILL1_RVT!x343360y167040
*1068 xofiller!SHFILL1_RVT!x387440y167040
*1069 xofiller!SHFILL1_RVT!x388960y167040
*1070 xofiller!SHFILL1_RVT!x390480y167040
*1071 xofiller!SHFILL1_RVT!x392000y167040
*1072 xofiller!SHFILL1_RVT!x393520y167040
*1073 xofiller!SHFILL1_RVT!x395040y167040
*1074 xofiller!SHFILL1_RVT!x396560y167040
*1075 xofiller!SHFILL1_RVT!x398080y167040
*1076 xofiller!SHFILL1_RVT!x399600y167040
*1077 xofiller!SHFILL1_RVT!x401120y167040
*1078 xofiller!SHFILL1_RVT!x402640y167040
*1079 xofiller!SHFILL1_RVT!x404160y167040
*1080 xofiller!SHFILL1_RVT!x425440y167040
*1081 xofiller!SHFILL1_RVT!x426960y167040
*1082 xofiller!SHFILL1_RVT!x428480y167040
*1083 xofiller!SHFILL1_RVT!x430000y167040
*1084 xofiller!SHFILL1_RVT!x431520y167040
*1085 xofiller!SHFILL1_RVT!x445200y167040
*1086 xofiller!SHFILL1_RVT!x446720y167040
*1087 xofiller!SHFILL1_RVT!x448240y167040
*1088 xofiller!SHFILL1_RVT!x475600y167040
*1089 xofiller!SHFILL1_RVT!x50000y183760
*1090 xofiller!SHFILL1_RVT!x51520y183760
*1091 xofiller!SHFILL1_RVT!x53040y183760
*1092 xofiller!SHFILL1_RVT!x54560y183760
*1093 xofiller!SHFILL1_RVT!x74320y183760
*1094 xofiller!SHFILL1_RVT!x167040y183760
*1095 xofiller!SHFILL1_RVT!x168560y183760
*1096 xofiller!SHFILL1_RVT!x170080y183760
*1097 xofiller!SHFILL1_RVT!x171600y183760
*1098 xofiller!SHFILL1_RVT!x173120y183760
*1099 xofiller!SHFILL1_RVT!x174640y183760
*1100 xofiller!SHFILL1_RVT!x176160y183760
*1101 xofiller!SHFILL1_RVT!x177680y183760
*1102 xofiller!SHFILL1_RVT!x179200y183760
*1103 xofiller!SHFILL1_RVT!x180720y183760
*1104 xofiller!SHFILL1_RVT!x182240y183760
*1105 xofiller!SHFILL1_RVT!x229360y183760
*1106 xofiller!SHFILL1_RVT!x230880y183760
*1107 xofiller!SHFILL1_RVT!x232400y183760
*1108 xofiller!SHFILL1_RVT!x233920y183760
*1109 xofiller!SHFILL1_RVT!x250640y183760
*1110 xofiller!SHFILL1_RVT!x252160y183760
*1111 xofiller!SHFILL1_RVT!x253680y183760
*1112 xofiller!SHFILL1_RVT!x255200y183760
*1113 xofiller!SHFILL1_RVT!x256720y183760
*1114 xofiller!SHFILL1_RVT!x258240y183760
*1115 xofiller!SHFILL1_RVT!x259760y183760
*1116 xofiller!SHFILL1_RVT!x261280y183760
*1117 xofiller!SHFILL1_RVT!x262800y183760
*1118 xofiller!SHFILL1_RVT!x264320y183760
*1119 xofiller!SHFILL1_RVT!x265840y183760
*1120 xofiller!SHFILL1_RVT!x267360y183760
*1121 xofiller!SHFILL1_RVT!x268880y183760
*1122 xofiller!SHFILL1_RVT!x270400y183760
*1123 xofiller!SHFILL1_RVT!x271920y183760
*1124 xofiller!SHFILL1_RVT!x273440y183760
*1125 xofiller!SHFILL1_RVT!x274960y183760
*1126 xofiller!SHFILL1_RVT!x276480y183760
*1127 xofiller!SHFILL1_RVT!x278000y183760
*1128 xofiller!SHFILL1_RVT!x279520y183760
*1129 xofiller!SHFILL1_RVT!x281040y183760
*1130 xofiller!SHFILL1_RVT!x297760y183760
*1131 xofiller!SHFILL1_RVT!x299280y183760
*1132 xofiller!SHFILL1_RVT!x300800y183760
*1133 xofiller!SHFILL1_RVT!x302320y183760
*1134 xofiller!SHFILL1_RVT!x303840y183760
*1135 xofiller!SHFILL1_RVT!x305360y183760
*1136 xofiller!SHFILL1_RVT!x314480y183760
*1137 xofiller!SHFILL1_RVT!x316000y183760
*1138 xofiller!SHFILL1_RVT!x317520y183760
*1139 xofiller!SHFILL1_RVT!x319040y183760
*1140 xofiller!SHFILL1_RVT!x320560y183760
*1141 xofiller!SHFILL1_RVT!x322080y183760
*1142 xofiller!SHFILL1_RVT!x323600y183760
*1143 xofiller!SHFILL1_RVT!x325120y183760
*1144 xofiller!SHFILL1_RVT!x344880y183760
*1145 xofiller!SHFILL1_RVT!x346400y183760
*1146 xofiller!SHFILL1_RVT!x347920y183760
*1147 xofiller!SHFILL1_RVT!x349440y183760
*1148 xofiller!SHFILL1_RVT!x350960y183760
*1149 xofiller!SHFILL1_RVT!x352480y183760
*1150 xofiller!SHFILL1_RVT!x354000y183760
*1151 xofiller!SHFILL1_RVT!x355520y183760
*1152 xofiller!SHFILL1_RVT!x357040y183760
*1153 xofiller!SHFILL1_RVT!x358560y183760
*1154 xofiller!SHFILL1_RVT!x360080y183760
*1155 xofiller!SHFILL1_RVT!x361600y183760
*1156 xofiller!SHFILL1_RVT!x363120y183760
*1157 xofiller!SHFILL1_RVT!x364640y183760
*1158 xofiller!SHFILL1_RVT!x366160y183760
*1159 xofiller!SHFILL1_RVT!x367680y183760
*1160 xofiller!SHFILL1_RVT!x369200y183760
*1161 xofiller!SHFILL1_RVT!x370720y183760
*1162 xofiller!SHFILL1_RVT!x372240y183760
*1163 xofiller!SHFILL1_RVT!x373760y183760
*1164 xofiller!SHFILL1_RVT!x375280y183760
*1165 xofiller!SHFILL1_RVT!x376800y183760
*1166 xofiller!SHFILL1_RVT!x378320y183760
*1167 xofiller!SHFILL1_RVT!x379840y183760
*1168 xofiller!SHFILL1_RVT!x381360y183760
*1169 xofiller!SHFILL1_RVT!x382880y183760
*1170 xofiller!SHFILL1_RVT!x384400y183760
*1171 xofiller!SHFILL1_RVT!x385920y183760
*1172 xofiller!SHFILL1_RVT!x387440y183760
*1173 xofiller!SHFILL1_RVT!x404160y183760
*1174 xofiller!SHFILL1_RVT!x405680y183760
*1175 xofiller!SHFILL1_RVT!x407200y183760
*1176 xofiller!SHFILL1_RVT!x408720y183760
*1177 xofiller!SHFILL1_RVT!x410240y183760
*1178 xofiller!SHFILL1_RVT!x411760y183760
*1179 xofiller!SHFILL1_RVT!x413280y183760
*1180 xofiller!SHFILL1_RVT!x414800y183760
*1181 xofiller!SHFILL1_RVT!x416320y183760
*1182 xofiller!SHFILL1_RVT!x417840y183760
*1183 xofiller!SHFILL1_RVT!x419360y183760
*1184 xofiller!SHFILL1_RVT!x431520y183760
*1185 xofiller!SHFILL1_RVT!x433040y183760
*1186 xofiller!SHFILL1_RVT!x442160y183760
*1187 xofiller!SHFILL1_RVT!x451280y183760
*1188 xofiller!SHFILL1_RVT!x452800y183760
*1189 xofiller!SHFILL1_RVT!x454320y183760
*1190 xofiller!SHFILL1_RVT!x455840y183760
*1191 xofiller!SHFILL1_RVT!x457360y183760
*1192 xofiller!SHFILL1_RVT!x458880y183760
*1193 xofiller!SHFILL1_RVT!x460400y183760
*1194 xofiller!SHFILL1_RVT!x461920y183760
*1195 xofiller!SHFILL1_RVT!x472560y183760
*1196 xofiller!SHFILL1_RVT!x474080y183760
*1197 xofiller!SHFILL1_RVT!x475600y183760
*1198 xofiller!SHFILL1_RVT!x50000y200480
*1199 xofiller!SHFILL1_RVT!x68240y200480
*1200 xofiller!SHFILL1_RVT!x69760y200480
*1201 xofiller!SHFILL1_RVT!x71280y200480
*1202 xofiller!SHFILL1_RVT!x72800y200480
*1203 xofiller!SHFILL1_RVT!x74320y200480
*1204 xofiller!SHFILL1_RVT!x75840y200480
*1205 xofiller!SHFILL1_RVT!x77360y200480
*1206 xofiller!SHFILL1_RVT!x78880y200480
*1207 xofiller!SHFILL1_RVT!x80400y200480
*1208 xofiller!SHFILL1_RVT!x81920y200480
*1209 xofiller!SHFILL1_RVT!x83440y200480
*1210 xofiller!SHFILL1_RVT!x84960y200480
*1211 xofiller!SHFILL1_RVT!x86480y200480
*1212 xofiller!SHFILL1_RVT!x88000y200480
*1213 xofiller!SHFILL1_RVT!x89520y200480
*1214 xofiller!SHFILL1_RVT!x91040y200480
*1215 xofiller!SHFILL1_RVT!x92560y200480
*1216 xofiller!SHFILL1_RVT!x94080y200480
*1217 xofiller!SHFILL1_RVT!x95600y200480
*1218 xofiller!SHFILL1_RVT!x97120y200480
*1219 xofiller!SHFILL1_RVT!x98640y200480
*1220 xofiller!SHFILL1_RVT!x100160y200480
*1221 xofiller!SHFILL1_RVT!x101680y200480
*1222 xofiller!SHFILL1_RVT!x103200y200480
*1223 xofiller!SHFILL1_RVT!x104720y200480
*1224 xofiller!SHFILL1_RVT!x106240y200480
*1225 xofiller!SHFILL1_RVT!x107760y200480
*1226 xofiller!SHFILL1_RVT!x109280y200480
*1227 xofiller!SHFILL1_RVT!x110800y200480
*1228 xofiller!SHFILL1_RVT!x112320y200480
*1229 xofiller!SHFILL1_RVT!x113840y200480
*1230 xofiller!SHFILL1_RVT!x115360y200480
*1231 xofiller!SHFILL1_RVT!x116880y200480
*1232 xofiller!SHFILL1_RVT!x118400y200480
*1233 xofiller!SHFILL1_RVT!x119920y200480
*1234 xofiller!SHFILL1_RVT!x121440y200480
*1235 xofiller!SHFILL1_RVT!x122960y200480
*1236 xofiller!SHFILL1_RVT!x185280y200480
*1237 xofiller!SHFILL1_RVT!x186800y200480
*1238 xofiller!SHFILL1_RVT!x188320y200480
*1239 xofiller!SHFILL1_RVT!x189840y200480
*1240 xofiller!SHFILL1_RVT!x191360y200480
*1241 xofiller!SHFILL1_RVT!x192880y200480
*1242 xofiller!SHFILL1_RVT!x194400y200480
*1243 xofiller!SHFILL1_RVT!x195920y200480
*1244 xofiller!SHFILL1_RVT!x197440y200480
*1245 xofiller!SHFILL1_RVT!x198960y200480
*1246 xofiller!SHFILL1_RVT!x200480y200480
*1247 xofiller!SHFILL1_RVT!x202000y200480
*1248 xofiller!SHFILL1_RVT!x203520y200480
*1249 xofiller!SHFILL1_RVT!x205040y200480
*1250 xofiller!SHFILL1_RVT!x206560y200480
*1251 xofiller!SHFILL1_RVT!x208080y200480
*1252 xofiller!SHFILL1_RVT!x209600y200480
*1253 xofiller!SHFILL1_RVT!x211120y200480
*1254 xofiller!SHFILL1_RVT!x212640y200480
*1255 xofiller!SHFILL1_RVT!x214160y200480
*1256 xofiller!SHFILL1_RVT!x215680y200480
*1257 xofiller!SHFILL1_RVT!x217200y200480
*1258 xofiller!SHFILL1_RVT!x218720y200480
*1259 xofiller!SHFILL1_RVT!x220240y200480
*1260 xofiller!SHFILL1_RVT!x221760y200480
*1261 xofiller!SHFILL1_RVT!x223280y200480
*1262 xofiller!SHFILL1_RVT!x224800y200480
*1263 xofiller!SHFILL1_RVT!x226320y200480
*1264 xofiller!SHFILL1_RVT!x227840y200480
*1265 xofiller!SHFILL1_RVT!x229360y200480
*1266 xofiller!SHFILL1_RVT!x230880y200480
*1267 xofiller!SHFILL1_RVT!x241520y200480
*1268 xofiller!SHFILL1_RVT!x243040y200480
*1269 xofiller!SHFILL1_RVT!x244560y200480
*1270 xofiller!SHFILL1_RVT!x246080y200480
*1271 xofiller!SHFILL1_RVT!x247600y200480
*1272 xofiller!SHFILL1_RVT!x294720y200480
*1273 xofiller!SHFILL1_RVT!x296240y200480
*1274 xofiller!SHFILL1_RVT!x297760y200480
*1275 xofiller!SHFILL1_RVT!x299280y200480
*1276 xofiller!SHFILL1_RVT!x300800y200480
*1277 xofiller!SHFILL1_RVT!x390480y200480
*1278 xofiller!SHFILL1_RVT!x411760y200480
*1279 xofiller!SHFILL1_RVT!x413280y200480
*1280 xofiller!SHFILL1_RVT!x433040y200480
*1281 xofiller!SHFILL1_RVT!x434560y200480
*1282 xofiller!SHFILL1_RVT!x436080y200480
*1283 xofiller!SHFILL1_RVT!x437600y200480
*1284 xofiller!SHFILL1_RVT!x439120y200480
*1285 xofiller!SHFILL1_RVT!x457360y200480
*1286 xofiller!SHFILL1_RVT!x458880y200480
*1287 xofiller!SHFILL1_RVT!x460400y200480
*1288 xofiller!SHFILL1_RVT!x57600y217200
*1289 xofiller!SHFILL1_RVT!x59120y217200
*1290 xofiller!SHFILL1_RVT!x60640y217200
*1291 xofiller!SHFILL1_RVT!x80400y217200
*1292 xofiller!SHFILL1_RVT!x127520y217200
*1293 xofiller!SHFILL1_RVT!x174640y217200
*1294 xofiller!SHFILL1_RVT!x176160y217200
*1295 xofiller!SHFILL1_RVT!x177680y217200
*1296 xofiller!SHFILL1_RVT!x179200y217200
*1297 xofiller!SHFILL1_RVT!x226320y217200
*1298 xofiller!SHFILL1_RVT!x227840y217200
*1299 xofiller!SHFILL1_RVT!x256720y217200
*1300 xofiller!SHFILL1_RVT!x258240y217200
*1301 xofiller!SHFILL1_RVT!x259760y217200
*1302 xofiller!SHFILL1_RVT!x261280y217200
*1303 xofiller!SHFILL1_RVT!x262800y217200
*1304 xofiller!SHFILL1_RVT!x264320y217200
*1305 xofiller!SHFILL1_RVT!x265840y217200
*1306 xofiller!SHFILL1_RVT!x267360y217200
*1307 xofiller!SHFILL1_RVT!x268880y217200
*1308 xofiller!SHFILL1_RVT!x270400y217200
*1309 xofiller!SHFILL1_RVT!x271920y217200
*1310 xofiller!SHFILL1_RVT!x273440y217200
*1311 xofiller!SHFILL1_RVT!x274960y217200
*1312 xofiller!SHFILL1_RVT!x276480y217200
*1313 xofiller!SHFILL1_RVT!x278000y217200
*1314 xofiller!SHFILL1_RVT!x279520y217200
*1315 xofiller!SHFILL1_RVT!x281040y217200
*1316 xofiller!SHFILL1_RVT!x282560y217200
*1317 xofiller!SHFILL1_RVT!x284080y217200
*1318 xofiller!SHFILL1_RVT!x285600y217200
*1319 xofiller!SHFILL1_RVT!x287120y217200
*1320 xofiller!SHFILL1_RVT!x288640y217200
*1321 xofiller!SHFILL1_RVT!x346400y217200
*1322 xofiller!SHFILL1_RVT!x390480y217200
*1323 xofiller!SHFILL1_RVT!x392000y217200
*1324 xofiller!SHFILL1_RVT!x393520y217200
*1325 xofiller!SHFILL1_RVT!x395040y217200
*1326 xofiller!SHFILL1_RVT!x396560y217200
*1327 xofiller!SHFILL1_RVT!x398080y217200
*1328 xofiller!SHFILL1_RVT!x399600y217200
*1329 xofiller!SHFILL1_RVT!x408720y217200
*1330 xofiller!SHFILL1_RVT!x410240y217200
*1331 xofiller!SHFILL1_RVT!x411760y217200
*1332 xofiller!SHFILL1_RVT!x413280y217200
*1333 xofiller!SHFILL1_RVT!x414800y217200
*1334 xofiller!SHFILL1_RVT!x416320y217200
*1335 xofiller!SHFILL1_RVT!x417840y217200
*1336 xofiller!SHFILL1_RVT!x419360y217200
*1337 xofiller!SHFILL1_RVT!x420880y217200
*1338 xofiller!SHFILL1_RVT!x458880y217200
*1339 xofiller!SHFILL1_RVT!x460400y217200
*1340 xofiller!SHFILL1_RVT!x461920y217200
*1341 xofiller!SHFILL1_RVT!x463440y217200
*1342 xofiller!SHFILL1_RVT!x464960y217200
*1343 xofiller!SHFILL1_RVT!x466480y217200
*1344 xofiller!SHFILL1_RVT!x468000y217200
*1345 xofiller!SHFILL1_RVT!x469520y217200
*1346 xofiller!SHFILL1_RVT!x471040y217200
*1347 xofiller!SHFILL1_RVT!x472560y217200
*1348 xofiller!SHFILL1_RVT!x474080y217200
*1349 xofiller!SHFILL1_RVT!x475600y217200
*1350 xofiller!SHFILL1_RVT!x50000y233920
*1351 xofiller!SHFILL1_RVT!x60640y233920
*1352 xofiller!SHFILL1_RVT!x62160y233920
*1353 xofiller!SHFILL1_RVT!x81920y233920
*1354 xofiller!SHFILL1_RVT!x129040y233920
*1355 xofiller!SHFILL1_RVT!x130560y233920
*1356 xofiller!SHFILL1_RVT!x132080y233920
*1357 xofiller!SHFILL1_RVT!x133600y233920
*1358 xofiller!SHFILL1_RVT!x135120y233920
*1359 xofiller!SHFILL1_RVT!x136640y233920
*1360 xofiller!SHFILL1_RVT!x138160y233920
*1361 xofiller!SHFILL1_RVT!x139680y233920
*1362 xofiller!SHFILL1_RVT!x141200y233920
*1363 xofiller!SHFILL1_RVT!x142720y233920
*1364 xofiller!SHFILL1_RVT!x144240y233920
*1365 xofiller!SHFILL1_RVT!x145760y233920
*1366 xofiller!SHFILL1_RVT!x147280y233920
*1367 xofiller!SHFILL1_RVT!x148800y233920
*1368 xofiller!SHFILL1_RVT!x150320y233920
*1369 xofiller!SHFILL1_RVT!x205040y233920
*1370 xofiller!SHFILL1_RVT!x206560y233920
*1371 xofiller!SHFILL1_RVT!x208080y233920
*1372 xofiller!SHFILL1_RVT!x221760y233920
*1373 xofiller!SHFILL1_RVT!x223280y233920
*1374 xofiller!SHFILL1_RVT!x224800y233920
*1375 xofiller!SHFILL1_RVT!x226320y233920
*1376 xofiller!SHFILL1_RVT!x227840y233920
*1377 xofiller!SHFILL1_RVT!x229360y233920
*1378 xofiller!SHFILL1_RVT!x230880y233920
*1379 xofiller!SHFILL1_RVT!x232400y233920
*1380 xofiller!SHFILL1_RVT!x241520y233920
*1381 xofiller!SHFILL1_RVT!x243040y233920
*1382 xofiller!SHFILL1_RVT!x244560y233920
*1383 xofiller!SHFILL1_RVT!x246080y233920
*1384 xofiller!SHFILL1_RVT!x247600y233920
*1385 xofiller!SHFILL1_RVT!x249120y233920
*1386 xofiller!SHFILL1_RVT!x250640y233920
*1387 xofiller!SHFILL1_RVT!x297760y233920
*1388 xofiller!SHFILL1_RVT!x299280y233920
*1389 xofiller!SHFILL1_RVT!x300800y233920
*1390 xofiller!SHFILL1_RVT!x302320y233920
*1391 xofiller!SHFILL1_RVT!x303840y233920
*1392 xofiller!SHFILL1_RVT!x305360y233920
*1393 xofiller!SHFILL1_RVT!x306880y233920
*1394 xofiller!SHFILL1_RVT!x308400y233920
*1395 xofiller!SHFILL1_RVT!x309920y233920
*1396 xofiller!SHFILL1_RVT!x311440y233920
*1397 xofiller!SHFILL1_RVT!x312960y233920
*1398 xofiller!SHFILL1_RVT!x314480y233920
*1399 xofiller!SHFILL1_RVT!x316000y233920
*1400 xofiller!SHFILL1_RVT!x317520y233920
*1401 xofiller!SHFILL1_RVT!x319040y233920
*1402 xofiller!SHFILL1_RVT!x320560y233920
*1403 xofiller!SHFILL1_RVT!x322080y233920
*1404 xofiller!SHFILL1_RVT!x323600y233920
*1405 xofiller!SHFILL1_RVT!x325120y233920
*1406 xofiller!SHFILL1_RVT!x326640y233920
*1407 xofiller!SHFILL1_RVT!x328160y233920
*1408 xofiller!SHFILL1_RVT!x329680y233920
*1409 xofiller!SHFILL1_RVT!x331200y233920
*1410 xofiller!SHFILL1_RVT!x332720y233920
*1411 xofiller!SHFILL1_RVT!x334240y233920
*1412 xofiller!SHFILL1_RVT!x335760y233920
*1413 xofiller!SHFILL1_RVT!x337280y233920
*1414 xofiller!SHFILL1_RVT!x390480y233920
*1415 xofiller!SHFILL1_RVT!x425440y233920
*1416 xofiller!SHFILL1_RVT!x426960y233920
*1417 xofiller!SHFILL1_RVT!x437600y233920
*1418 xofiller!SHFILL1_RVT!x439120y233920
*1419 xofiller!SHFILL1_RVT!x440640y233920
*1420 xofiller!SHFILL1_RVT!x442160y233920
*1421 xofiller!SHFILL1_RVT!x443680y233920
*1422 xofiller!SHFILL1_RVT!x445200y233920
*1423 xofiller!SHFILL1_RVT!x446720y233920
*1424 xofiller!SHFILL1_RVT!x448240y233920
*1425 xofiller!SHFILL1_RVT!x57600y250640
*1426 xofiller!SHFILL1_RVT!x59120y250640
*1427 xofiller!SHFILL1_RVT!x60640y250640
*1428 xofiller!SHFILL1_RVT!x62160y250640
*1429 xofiller!SHFILL1_RVT!x63680y250640
*1430 xofiller!SHFILL1_RVT!x65200y250640
*1431 xofiller!SHFILL1_RVT!x75840y250640
*1432 xofiller!SHFILL1_RVT!x77360y250640
*1433 xofiller!SHFILL1_RVT!x78880y250640
*1434 xofiller!SHFILL1_RVT!x80400y250640
*1435 xofiller!SHFILL1_RVT!x81920y250640
*1436 xofiller!SHFILL1_RVT!x83440y250640
*1437 xofiller!SHFILL1_RVT!x84960y250640
*1438 xofiller!SHFILL1_RVT!x86480y250640
*1439 xofiller!SHFILL1_RVT!x88000y250640
*1440 xofiller!SHFILL1_RVT!x89520y250640
*1441 xofiller!SHFILL1_RVT!x91040y250640
*1442 xofiller!SHFILL1_RVT!x92560y250640
*1443 xofiller!SHFILL1_RVT!x94080y250640
*1444 xofiller!SHFILL1_RVT!x95600y250640
*1445 xofiller!SHFILL1_RVT!x97120y250640
*1446 xofiller!SHFILL1_RVT!x98640y250640
*1447 xofiller!SHFILL1_RVT!x100160y250640
*1448 xofiller!SHFILL1_RVT!x101680y250640
*1449 xofiller!SHFILL1_RVT!x103200y250640
*1450 xofiller!SHFILL1_RVT!x104720y250640
*1451 xofiller!SHFILL1_RVT!x106240y250640
*1452 xofiller!SHFILL1_RVT!x107760y250640
*1453 xofiller!SHFILL1_RVT!x109280y250640
*1454 xofiller!SHFILL1_RVT!x110800y250640
*1455 xofiller!SHFILL1_RVT!x112320y250640
*1456 xofiller!SHFILL1_RVT!x113840y250640
*1457 xofiller!SHFILL1_RVT!x115360y250640
*1458 xofiller!SHFILL1_RVT!x116880y250640
*1459 xofiller!SHFILL1_RVT!x118400y250640
*1460 xofiller!SHFILL1_RVT!x119920y250640
*1461 xofiller!SHFILL1_RVT!x121440y250640
*1462 xofiller!SHFILL1_RVT!x122960y250640
*1463 xofiller!SHFILL1_RVT!x124480y250640
*1464 xofiller!SHFILL1_RVT!x126000y250640
*1465 xofiller!SHFILL1_RVT!x127520y250640
*1466 xofiller!SHFILL1_RVT!x129040y250640
*1467 xofiller!SHFILL1_RVT!x130560y250640
*1468 xofiller!SHFILL1_RVT!x177680y250640
*1469 xofiller!SHFILL1_RVT!x179200y250640
*1470 xofiller!SHFILL1_RVT!x180720y250640
*1471 xofiller!SHFILL1_RVT!x182240y250640
*1472 xofiller!SHFILL1_RVT!x183760y250640
*1473 xofiller!SHFILL1_RVT!x197440y250640
*1474 xofiller!SHFILL1_RVT!x198960y250640
*1475 xofiller!SHFILL1_RVT!x200480y250640
*1476 xofiller!SHFILL1_RVT!x202000y250640
*1477 xofiller!SHFILL1_RVT!x218720y250640
*1478 xofiller!SHFILL1_RVT!x220240y250640
*1479 xofiller!SHFILL1_RVT!x221760y250640
*1480 xofiller!SHFILL1_RVT!x223280y250640
*1481 xofiller!SHFILL1_RVT!x224800y250640
*1482 xofiller!SHFILL1_RVT!x226320y250640
*1483 xofiller!SHFILL1_RVT!x246080y250640
*1484 xofiller!SHFILL1_RVT!x247600y250640
*1485 xofiller!SHFILL1_RVT!x249120y250640
*1486 xofiller!SHFILL1_RVT!x250640y250640
*1487 xofiller!SHFILL1_RVT!x252160y250640
*1488 xofiller!SHFILL1_RVT!x253680y250640
*1489 xofiller!SHFILL1_RVT!x354000y250640
*1490 xofiller!SHFILL1_RVT!x355520y250640
*1491 xofiller!SHFILL1_RVT!x357040y250640
*1492 xofiller!SHFILL1_RVT!x367680y250640
*1493 xofiller!SHFILL1_RVT!x369200y250640
*1494 xofiller!SHFILL1_RVT!x370720y250640
*1495 xofiller!SHFILL1_RVT!x372240y250640
*1496 xofiller!SHFILL1_RVT!x373760y250640
*1497 xofiller!SHFILL1_RVT!x375280y250640
*1498 xofiller!SHFILL1_RVT!x376800y250640
*1499 xofiller!SHFILL1_RVT!x407200y250640
*1500 xofiller!SHFILL1_RVT!x468000y250640
*1501 xofiller!SHFILL1_RVT!x50000y267360
*1502 xofiller!SHFILL1_RVT!x59120y267360
*1503 xofiller!SHFILL1_RVT!x60640y267360
*1504 xofiller!SHFILL1_RVT!x62160y267360
*1505 xofiller!SHFILL1_RVT!x63680y267360
*1506 xofiller!SHFILL1_RVT!x65200y267360
*1507 xofiller!SHFILL1_RVT!x66720y267360
*1508 xofiller!SHFILL1_RVT!x86480y267360
*1509 xofiller!SHFILL1_RVT!x88000y267360
*1510 xofiller!SHFILL1_RVT!x180720y267360
*1511 xofiller!SHFILL1_RVT!x197440y267360
*1512 xofiller!SHFILL1_RVT!x198960y267360
*1513 xofiller!SHFILL1_RVT!x200480y267360
*1514 xofiller!SHFILL1_RVT!x202000y267360
*1515 xofiller!SHFILL1_RVT!x203520y267360
*1516 xofiller!SHFILL1_RVT!x205040y267360
*1517 xofiller!SHFILL1_RVT!x233920y267360
*1518 xofiller!SHFILL1_RVT!x235440y267360
*1519 xofiller!SHFILL1_RVT!x236960y267360
*1520 xofiller!SHFILL1_RVT!x253680y267360
*1521 xofiller!SHFILL1_RVT!x255200y267360
*1522 xofiller!SHFILL1_RVT!x256720y267360
*1523 xofiller!SHFILL1_RVT!x258240y267360
*1524 xofiller!SHFILL1_RVT!x259760y267360
*1525 xofiller!SHFILL1_RVT!x261280y267360
*1526 xofiller!SHFILL1_RVT!x262800y267360
*1527 xofiller!SHFILL1_RVT!x264320y267360
*1528 xofiller!SHFILL1_RVT!x265840y267360
*1529 xofiller!SHFILL1_RVT!x267360y267360
*1530 xofiller!SHFILL1_RVT!x268880y267360
*1531 xofiller!SHFILL1_RVT!x270400y267360
*1532 xofiller!SHFILL1_RVT!x271920y267360
*1533 xofiller!SHFILL1_RVT!x273440y267360
*1534 xofiller!SHFILL1_RVT!x274960y267360
*1535 xofiller!SHFILL1_RVT!x276480y267360
*1536 xofiller!SHFILL1_RVT!x278000y267360
*1537 xofiller!SHFILL1_RVT!x279520y267360
*1538 xofiller!SHFILL1_RVT!x281040y267360
*1539 xofiller!SHFILL1_RVT!x282560y267360
*1540 xofiller!SHFILL1_RVT!x284080y267360
*1541 xofiller!SHFILL1_RVT!x285600y267360
*1542 xofiller!SHFILL1_RVT!x287120y267360
*1543 xofiller!SHFILL1_RVT!x288640y267360
*1544 xofiller!SHFILL1_RVT!x290160y267360
*1545 xofiller!SHFILL1_RVT!x300800y267360
*1546 xofiller!SHFILL1_RVT!x344880y267360
*1547 xofiller!SHFILL1_RVT!x346400y267360
*1548 xofiller!SHFILL1_RVT!x390480y267360
*1549 xofiller!SHFILL1_RVT!x392000y267360
*1550 xofiller!SHFILL1_RVT!x393520y267360
*1551 xofiller!SHFILL1_RVT!x395040y267360
*1552 xofiller!SHFILL1_RVT!x396560y267360
*1553 xofiller!SHFILL1_RVT!x398080y267360
*1554 xofiller!SHFILL1_RVT!x399600y267360
*1555 xofiller!SHFILL1_RVT!x401120y267360
*1556 xofiller!SHFILL1_RVT!x402640y267360
*1557 xofiller!SHFILL1_RVT!x404160y267360
*1558 xofiller!SHFILL1_RVT!x405680y267360
*1559 xofiller!SHFILL1_RVT!x407200y267360
*1560 xofiller!SHFILL1_RVT!x408720y267360
*1561 xofiller!SHFILL1_RVT!x425440y267360
*1562 xofiller!SHFILL1_RVT!x446720y267360
*1563 xofiller!SHFILL1_RVT!x448240y267360
*1564 xofiller!SHFILL1_RVT!x449760y267360
*1565 xofiller!SHFILL1_RVT!x451280y267360
*1566 xofiller!SHFILL1_RVT!x452800y267360
*1567 xofiller!SHFILL1_RVT!x454320y267360
*1568 xofiller!SHFILL1_RVT!x455840y267360
*1569 xofiller!SHFILL1_RVT!x457360y267360
*1570 xofiller!SHFILL1_RVT!x458880y267360
*1571 xofiller!SHFILL1_RVT!x460400y267360
*1572 xofiller!SHFILL1_RVT!x461920y267360
*1573 xofiller!SHFILL1_RVT!x463440y267360
*1574 xofiller!SHFILL1_RVT!x464960y267360
*1575 xofiller!SHFILL1_RVT!x466480y267360
*1576 xofiller!SHFILL1_RVT!x468000y267360
*1577 xofiller!SHFILL1_RVT!x469520y267360
*1578 xofiller!SHFILL1_RVT!x471040y267360
*1579 xofiller!SHFILL1_RVT!x472560y267360
*1580 xofiller!SHFILL1_RVT!x474080y267360
*1581 xofiller!SHFILL1_RVT!x475600y267360
*1582 xofiller!SHFILL1_RVT!x57600y284080
*1583 xofiller!SHFILL1_RVT!x59120y284080
*1584 xofiller!SHFILL1_RVT!x88000y284080
*1585 xofiller!SHFILL1_RVT!x135120y284080
*1586 xofiller!SHFILL1_RVT!x136640y284080
*1587 xofiller!SHFILL1_RVT!x138160y284080
*1588 xofiller!SHFILL1_RVT!x139680y284080
*1589 xofiller!SHFILL1_RVT!x141200y284080
*1590 xofiller!SHFILL1_RVT!x142720y284080
*1591 xofiller!SHFILL1_RVT!x144240y284080
*1592 xofiller!SHFILL1_RVT!x145760y284080
*1593 xofiller!SHFILL1_RVT!x147280y284080
*1594 xofiller!SHFILL1_RVT!x148800y284080
*1595 xofiller!SHFILL1_RVT!x150320y284080
*1596 xofiller!SHFILL1_RVT!x151840y284080
*1597 xofiller!SHFILL1_RVT!x153360y284080
*1598 xofiller!SHFILL1_RVT!x154880y284080
*1599 xofiller!SHFILL1_RVT!x156400y284080
*1600 xofiller!SHFILL1_RVT!x157920y284080
*1601 xofiller!SHFILL1_RVT!x159440y284080
*1602 xofiller!SHFILL1_RVT!x160960y284080
*1603 xofiller!SHFILL1_RVT!x162480y284080
*1604 xofiller!SHFILL1_RVT!x164000y284080
*1605 xofiller!SHFILL1_RVT!x165520y284080
*1606 xofiller!SHFILL1_RVT!x167040y284080
*1607 xofiller!SHFILL1_RVT!x180720y284080
*1608 xofiller!SHFILL1_RVT!x182240y284080
*1609 xofiller!SHFILL1_RVT!x183760y284080
*1610 xofiller!SHFILL1_RVT!x185280y284080
*1611 xofiller!SHFILL1_RVT!x186800y284080
*1612 xofiller!SHFILL1_RVT!x208080y284080
*1613 xofiller!SHFILL1_RVT!x229360y284080
*1614 xofiller!SHFILL1_RVT!x230880y284080
*1615 xofiller!SHFILL1_RVT!x232400y284080
*1616 xofiller!SHFILL1_RVT!x264320y284080
*1617 xofiller!SHFILL1_RVT!x265840y284080
*1618 xofiller!SHFILL1_RVT!x267360y284080
*1619 xofiller!SHFILL1_RVT!x311440y284080
*1620 xofiller!SHFILL1_RVT!x312960y284080
*1621 xofiller!SHFILL1_RVT!x314480y284080
*1622 xofiller!SHFILL1_RVT!x316000y284080
*1623 xofiller!SHFILL1_RVT!x317520y284080
*1624 xofiller!SHFILL1_RVT!x319040y284080
*1625 xofiller!SHFILL1_RVT!x320560y284080
*1626 xofiller!SHFILL1_RVT!x322080y284080
*1627 xofiller!SHFILL1_RVT!x323600y284080
*1628 xofiller!SHFILL1_RVT!x344880y284080
*1629 xofiller!SHFILL1_RVT!x346400y284080
*1630 xofiller!SHFILL1_RVT!x414800y284080
*1631 xofiller!SHFILL1_RVT!x416320y284080
*1632 xofiller!SHFILL1_RVT!x417840y284080
*1633 xofiller!SHFILL1_RVT!x419360y284080
*1634 xofiller!SHFILL1_RVT!x420880y284080
*1635 xofiller!SHFILL1_RVT!x422400y284080
*1636 xofiller!SHFILL1_RVT!x423920y284080
*1637 xofiller!SHFILL1_RVT!x425440y284080
*1638 xofiller!SHFILL1_RVT!x436080y284080
*1639 xofiller!SHFILL1_RVT!x437600y284080
*1640 xofiller!SHFILL1_RVT!x439120y284080
*1641 xofiller!SHFILL1_RVT!x451280y284080
*1642 xofiller!SHFILL1_RVT!x209600y300800
*1643 xofiller!SHFILL1_RVT!x211120y300800
*1644 xofiller!SHFILL1_RVT!x212640y300800
*1645 xofiller!SHFILL1_RVT!x214160y300800
*1646 xofiller!SHFILL1_RVT!x215680y300800
*1647 xofiller!SHFILL1_RVT!x235440y300800
*1648 xofiller!SHFILL1_RVT!x264320y300800
*1649 xofiller!SHFILL1_RVT!x265840y300800
*1650 xofiller!SHFILL1_RVT!x267360y300800
*1651 xofiller!SHFILL1_RVT!x328160y300800
*1652 xofiller!SHFILL1_RVT!x329680y300800
*1653 xofiller!SHFILL1_RVT!x331200y300800
*1654 xofiller!SHFILL1_RVT!x332720y300800
*1655 xofiller!SHFILL1_RVT!x334240y300800
*1656 xofiller!SHFILL1_RVT!x335760y300800
*1657 xofiller!SHFILL1_RVT!x337280y300800
*1658 xofiller!SHFILL1_RVT!x338800y300800
*1659 xofiller!SHFILL1_RVT!x340320y300800
*1660 xofiller!SHFILL1_RVT!x341840y300800
*1661 xofiller!SHFILL1_RVT!x343360y300800
*1662 xofiller!SHFILL1_RVT!x344880y300800
*1663 xofiller!SHFILL1_RVT!x346400y300800
*1664 xofiller!SHFILL1_RVT!x347920y300800
*1665 xofiller!SHFILL1_RVT!x349440y300800
*1666 xofiller!SHFILL1_RVT!x350960y300800
*1667 xofiller!SHFILL1_RVT!x352480y300800
*1668 xofiller!SHFILL1_RVT!x354000y300800
*1669 xofiller!SHFILL1_RVT!x355520y300800
*1670 xofiller!SHFILL1_RVT!x357040y300800
*1671 xofiller!SHFILL1_RVT!x358560y300800
*1672 xofiller!SHFILL1_RVT!x360080y300800
*1673 xofiller!SHFILL1_RVT!x361600y300800
*1674 xofiller!SHFILL1_RVT!x363120y300800
*1675 xofiller!SHFILL1_RVT!x364640y300800
*1676 xofiller!SHFILL1_RVT!x366160y300800
*1677 xofiller!SHFILL1_RVT!x367680y300800
*1678 xofiller!SHFILL1_RVT!x369200y300800
*1679 xofiller!SHFILL1_RVT!x370720y300800
*1680 xofiller!SHFILL1_RVT!x372240y300800
*1681 xofiller!SHFILL1_RVT!x373760y300800
*1682 xofiller!SHFILL1_RVT!x375280y300800
*1683 xofiller!SHFILL1_RVT!x376800y300800
*1684 xofiller!SHFILL1_RVT!x378320y300800
*1685 xofiller!SHFILL1_RVT!x379840y300800
*1686 xofiller!SHFILL1_RVT!x381360y300800
*1687 xofiller!SHFILL1_RVT!x382880y300800
*1688 xofiller!SHFILL1_RVT!x384400y300800
*1689 xofiller!SHFILL1_RVT!x385920y300800
*1690 xofiller!SHFILL1_RVT!x387440y300800
*1691 xofiller!SHFILL1_RVT!x388960y300800
*1692 xofiller!SHFILL1_RVT!x390480y300800
*1693 xofiller!SHFILL1_RVT!x392000y300800
*1694 xofiller!SHFILL1_RVT!x393520y300800
*1695 xofiller!SHFILL1_RVT!x395040y300800
*1696 xofiller!SHFILL1_RVT!x420880y300800
*1697 xofiller!SHFILL1_RVT!x422400y300800
*1698 xofiller!SHFILL1_RVT!x423920y300800
*1699 xofiller!SHFILL1_RVT!x425440y300800
*1700 xofiller!SHFILL1_RVT!x475600y300800
*1701 xofiller!SHFILL1_RVT!x50000y317520
*1702 xofiller!SHFILL1_RVT!x51520y317520
*1703 xofiller!SHFILL1_RVT!x53040y317520
*1704 xofiller!SHFILL1_RVT!x54560y317520
*1705 xofiller!SHFILL1_RVT!x56080y317520
*1706 xofiller!SHFILL1_RVT!x57600y317520
*1707 xofiller!SHFILL1_RVT!x59120y317520
*1708 xofiller!SHFILL1_RVT!x60640y317520
*1709 xofiller!SHFILL1_RVT!x62160y317520
*1710 xofiller!SHFILL1_RVT!x63680y317520
*1711 xofiller!SHFILL1_RVT!x65200y317520
*1712 xofiller!SHFILL1_RVT!x66720y317520
*1713 xofiller!SHFILL1_RVT!x68240y317520
*1714 xofiller!SHFILL1_RVT!x69760y317520
*1715 xofiller!SHFILL1_RVT!x71280y317520
*1716 xofiller!SHFILL1_RVT!x72800y317520
*1717 xofiller!SHFILL1_RVT!x74320y317520
*1718 xofiller!SHFILL1_RVT!x75840y317520
*1719 xofiller!SHFILL1_RVT!x77360y317520
*1720 xofiller!SHFILL1_RVT!x78880y317520
*1721 xofiller!SHFILL1_RVT!x80400y317520
*1722 xofiller!SHFILL1_RVT!x81920y317520
*1723 xofiller!SHFILL1_RVT!x83440y317520
*1724 xofiller!SHFILL1_RVT!x84960y317520
*1725 xofiller!SHFILL1_RVT!x86480y317520
*1726 xofiller!SHFILL1_RVT!x88000y317520
*1727 xofiller!SHFILL1_RVT!x89520y317520
*1728 xofiller!SHFILL1_RVT!x91040y317520
*1729 xofiller!SHFILL1_RVT!x92560y317520
*1730 xofiller!SHFILL1_RVT!x94080y317520
*1731 xofiller!SHFILL1_RVT!x95600y317520
*1732 xofiller!SHFILL1_RVT!x97120y317520
*1733 xofiller!SHFILL1_RVT!x98640y317520
*1734 xofiller!SHFILL1_RVT!x112320y317520
*1735 xofiller!SHFILL1_RVT!x113840y317520
*1736 xofiller!SHFILL1_RVT!x115360y317520
*1737 xofiller!SHFILL1_RVT!x116880y317520
*1738 xofiller!SHFILL1_RVT!x118400y317520
*1739 xofiller!SHFILL1_RVT!x119920y317520
*1740 xofiller!SHFILL1_RVT!x121440y317520
*1741 xofiller!SHFILL1_RVT!x205040y317520
*1742 xofiller!SHFILL1_RVT!x206560y317520
*1743 xofiller!SHFILL1_RVT!x208080y317520
*1744 xofiller!SHFILL1_RVT!x224800y317520
*1745 xofiller!SHFILL1_RVT!x226320y317520
*1746 xofiller!SHFILL1_RVT!x227840y317520
*1747 xofiller!SHFILL1_RVT!x229360y317520
*1748 xofiller!SHFILL1_RVT!x230880y317520
*1749 xofiller!SHFILL1_RVT!x232400y317520
*1750 xofiller!SHFILL1_RVT!x233920y317520
*1751 xofiller!SHFILL1_RVT!x253680y317520
*1752 xofiller!SHFILL1_RVT!x255200y317520
*1753 xofiller!SHFILL1_RVT!x256720y317520
*1754 xofiller!SHFILL1_RVT!x258240y317520
*1755 xofiller!SHFILL1_RVT!x259760y317520
*1756 xofiller!SHFILL1_RVT!x261280y317520
*1757 xofiller!SHFILL1_RVT!x262800y317520
*1758 xofiller!SHFILL1_RVT!x264320y317520
*1759 xofiller!SHFILL1_RVT!x265840y317520
*1760 xofiller!SHFILL1_RVT!x267360y317520
*1761 xofiller!SHFILL1_RVT!x268880y317520
*1762 xofiller!SHFILL1_RVT!x270400y317520
*1763 xofiller!SHFILL1_RVT!x271920y317520
*1764 xofiller!SHFILL1_RVT!x273440y317520
*1765 xofiller!SHFILL1_RVT!x274960y317520
*1766 xofiller!SHFILL1_RVT!x276480y317520
*1767 xofiller!SHFILL1_RVT!x278000y317520
*1768 xofiller!SHFILL1_RVT!x279520y317520
*1769 xofiller!SHFILL1_RVT!x281040y317520
*1770 xofiller!SHFILL1_RVT!x282560y317520
*1771 xofiller!SHFILL1_RVT!x284080y317520
*1772 xofiller!SHFILL1_RVT!x285600y317520
*1773 xofiller!SHFILL1_RVT!x287120y317520
*1774 xofiller!SHFILL1_RVT!x288640y317520
*1775 xofiller!SHFILL1_RVT!x290160y317520
*1776 xofiller!SHFILL1_RVT!x291680y317520
*1777 xofiller!SHFILL1_RVT!x293200y317520
*1778 xofiller!SHFILL1_RVT!x294720y317520
*1779 xofiller!SHFILL1_RVT!x296240y317520
*1780 xofiller!SHFILL1_RVT!x297760y317520
*1781 xofiller!SHFILL1_RVT!x299280y317520
*1782 xofiller!SHFILL1_RVT!x335760y317520
*1783 xofiller!SHFILL1_RVT!x355520y317520
*1784 xofiller!SHFILL1_RVT!x357040y317520
*1785 xofiller!SHFILL1_RVT!x401120y317520
*1786 xofiller!SHFILL1_RVT!x420880y317520
*1787 xofiller!SHFILL1_RVT!x422400y317520
*1788 xofiller!SHFILL1_RVT!x423920y317520
*1789 xofiller!SHFILL1_RVT!x439120y317520
*1790 xofiller!SHFILL1_RVT!x440640y317520
*1791 xofiller!SHFILL1_RVT!x442160y317520
*1792 xofiller!SHFILL1_RVT!x443680y317520
*1793 xofiller!SHFILL1_RVT!x445200y317520
*1794 xofiller!SHFILL1_RVT!x446720y317520
*1795 xofiller!SHFILL1_RVT!x448240y317520
*1796 xofiller!SHFILL1_RVT!x468000y317520
*1797 xofiller!SHFILL1_RVT!x469520y317520
*1798 xofiller!SHFILL1_RVT!x471040y317520
*1799 xofiller!SHFILL1_RVT!x472560y317520
*1800 xofiller!SHFILL1_RVT!x474080y317520
*1801 xofiller!SHFILL1_RVT!x475600y317520
*1802 xofiller!SHFILL1_RVT!x50000y334240
*1803 xofiller!SHFILL1_RVT!x97120y334240
*1804 xofiller!SHFILL1_RVT!x98640y334240
*1805 xofiller!SHFILL1_RVT!x100160y334240
*1806 xofiller!SHFILL1_RVT!x101680y334240
*1807 xofiller!SHFILL1_RVT!x103200y334240
*1808 xofiller!SHFILL1_RVT!x104720y334240
*1809 xofiller!SHFILL1_RVT!x106240y334240
*1810 xofiller!SHFILL1_RVT!x107760y334240
*1811 xofiller!SHFILL1_RVT!x109280y334240
*1812 xofiller!SHFILL1_RVT!x110800y334240
*1813 xofiller!SHFILL1_RVT!x112320y334240
*1814 xofiller!SHFILL1_RVT!x113840y334240
*1815 xofiller!SHFILL1_RVT!x115360y334240
*1816 xofiller!SHFILL1_RVT!x116880y334240
*1817 xofiller!SHFILL1_RVT!x118400y334240
*1818 xofiller!SHFILL1_RVT!x119920y334240
*1819 xofiller!SHFILL1_RVT!x121440y334240
*1820 xofiller!SHFILL1_RVT!x122960y334240
*1821 xofiller!SHFILL1_RVT!x124480y334240
*1822 xofiller!SHFILL1_RVT!x126000y334240
*1823 xofiller!SHFILL1_RVT!x127520y334240
*1824 xofiller!SHFILL1_RVT!x129040y334240
*1825 xofiller!SHFILL1_RVT!x130560y334240
*1826 xofiller!SHFILL1_RVT!x132080y334240
*1827 xofiller!SHFILL1_RVT!x133600y334240
*1828 xofiller!SHFILL1_RVT!x135120y334240
*1829 xofiller!SHFILL1_RVT!x136640y334240
*1830 xofiller!SHFILL1_RVT!x138160y334240
*1831 xofiller!SHFILL1_RVT!x139680y334240
*1832 xofiller!SHFILL1_RVT!x141200y334240
*1833 xofiller!SHFILL1_RVT!x142720y334240
*1834 xofiller!SHFILL1_RVT!x144240y334240
*1835 xofiller!SHFILL1_RVT!x145760y334240
*1836 xofiller!SHFILL1_RVT!x147280y334240
*1837 xofiller!SHFILL1_RVT!x148800y334240
*1838 xofiller!SHFILL1_RVT!x150320y334240
*1839 xofiller!SHFILL1_RVT!x151840y334240
*1840 xofiller!SHFILL1_RVT!x153360y334240
*1841 xofiller!SHFILL1_RVT!x154880y334240
*1842 xofiller!SHFILL1_RVT!x156400y334240
*1843 xofiller!SHFILL1_RVT!x157920y334240
*1844 xofiller!SHFILL1_RVT!x159440y334240
*1845 xofiller!SHFILL1_RVT!x160960y334240
*1846 xofiller!SHFILL1_RVT!x162480y334240
*1847 xofiller!SHFILL1_RVT!x164000y334240
*1848 xofiller!SHFILL1_RVT!x165520y334240
*1849 xofiller!SHFILL1_RVT!x167040y334240
*1850 xofiller!SHFILL1_RVT!x168560y334240
*1851 xofiller!SHFILL1_RVT!x170080y334240
*1852 xofiller!SHFILL1_RVT!x171600y334240
*1853 xofiller!SHFILL1_RVT!x173120y334240
*1854 xofiller!SHFILL1_RVT!x174640y334240
*1855 xofiller!SHFILL1_RVT!x176160y334240
*1856 xofiller!SHFILL1_RVT!x177680y334240
*1857 xofiller!SHFILL1_RVT!x179200y334240
*1858 xofiller!SHFILL1_RVT!x180720y334240
*1859 xofiller!SHFILL1_RVT!x182240y334240
*1860 xofiller!SHFILL1_RVT!x183760y334240
*1861 xofiller!SHFILL1_RVT!x185280y334240
*1862 xofiller!SHFILL1_RVT!x186800y334240
*1863 xofiller!SHFILL1_RVT!x188320y334240
*1864 xofiller!SHFILL1_RVT!x205040y334240
*1865 xofiller!SHFILL1_RVT!x206560y334240
*1866 xofiller!SHFILL1_RVT!x208080y334240
*1867 xofiller!SHFILL1_RVT!x247600y334240
*1868 xofiller!SHFILL1_RVT!x284080y334240
*1869 xofiller!SHFILL1_RVT!x305360y334240
*1870 xofiller!SHFILL1_RVT!x306880y334240
*1871 xofiller!SHFILL1_RVT!x308400y334240
*1872 xofiller!SHFILL1_RVT!x309920y334240
*1873 xofiller!SHFILL1_RVT!x331200y334240
*1874 xofiller!SHFILL1_RVT!x332720y334240
*1875 xofiller!SHFILL1_RVT!x334240y334240
*1876 xofiller!SHFILL1_RVT!x335760y334240
*1877 xofiller!SHFILL1_RVT!x337280y334240
*1878 xofiller!SHFILL1_RVT!x360080y334240
*1879 xofiller!SHFILL1_RVT!x404160y334240
*1880 xofiller!SHFILL1_RVT!x423920y334240
*1881 xofiller!SHFILL1_RVT!x445200y334240
*1882 xofiller!SHFILL1_RVT!x446720y334240
*1883 xofiller!SHFILL1_RVT!x448240y334240
*1884 xofiller!SHFILL1_RVT!x460400y334240
*1885 xofiller!SHFILL1_RVT!x461920y334240
*1886 xofiller!SHFILL1_RVT!x463440y334240
*1887 xofiller!SHFILL1_RVT!x464960y334240
*1888 xofiller!SHFILL1_RVT!x50000y350960
*1889 xofiller!SHFILL1_RVT!x141200y350960
*1890 xofiller!SHFILL1_RVT!x188320y350960
*1891 xofiller!SHFILL1_RVT!x189840y350960
*1892 xofiller!SHFILL1_RVT!x191360y350960
*1893 xofiller!SHFILL1_RVT!x192880y350960
*1894 xofiller!SHFILL1_RVT!x194400y350960
*1895 xofiller!SHFILL1_RVT!x211120y350960
*1896 xofiller!SHFILL1_RVT!x212640y350960
*1897 xofiller!SHFILL1_RVT!x214160y350960
*1898 xofiller!SHFILL1_RVT!x215680y350960
*1899 xofiller!SHFILL1_RVT!x217200y350960
*1900 xofiller!SHFILL1_RVT!x230880y350960
*1901 xofiller!SHFILL1_RVT!x232400y350960
*1902 xofiller!SHFILL1_RVT!x233920y350960
*1903 xofiller!SHFILL1_RVT!x235440y350960
*1904 xofiller!SHFILL1_RVT!x236960y350960
*1905 xofiller!SHFILL1_RVT!x238480y350960
*1906 xofiller!SHFILL1_RVT!x240000y350960
*1907 xofiller!SHFILL1_RVT!x241520y350960
*1908 xofiller!SHFILL1_RVT!x243040y350960
*1909 xofiller!SHFILL1_RVT!x244560y350960
*1910 xofiller!SHFILL1_RVT!x246080y350960
*1911 xofiller!SHFILL1_RVT!x247600y350960
*1912 xofiller!SHFILL1_RVT!x249120y350960
*1913 xofiller!SHFILL1_RVT!x250640y350960
*1914 xofiller!SHFILL1_RVT!x252160y350960
*1915 xofiller!SHFILL1_RVT!x253680y350960
*1916 xofiller!SHFILL1_RVT!x255200y350960
*1917 xofiller!SHFILL1_RVT!x256720y350960
*1918 xofiller!SHFILL1_RVT!x258240y350960
*1919 xofiller!SHFILL1_RVT!x259760y350960
*1920 xofiller!SHFILL1_RVT!x261280y350960
*1921 xofiller!SHFILL1_RVT!x262800y350960
*1922 xofiller!SHFILL1_RVT!x264320y350960
*1923 xofiller!SHFILL1_RVT!x265840y350960
*1924 xofiller!SHFILL1_RVT!x267360y350960
*1925 xofiller!SHFILL1_RVT!x268880y350960
*1926 xofiller!SHFILL1_RVT!x270400y350960
*1927 xofiller!SHFILL1_RVT!x271920y350960
*1928 xofiller!SHFILL1_RVT!x273440y350960
*1929 xofiller!SHFILL1_RVT!x274960y350960
*1930 xofiller!SHFILL1_RVT!x276480y350960
*1931 xofiller!SHFILL1_RVT!x278000y350960
*1932 xofiller!SHFILL1_RVT!x279520y350960
*1933 xofiller!SHFILL1_RVT!x281040y350960
*1934 xofiller!SHFILL1_RVT!x282560y350960
*1935 xofiller!SHFILL1_RVT!x284080y350960
*1936 xofiller!SHFILL1_RVT!x285600y350960
*1937 xofiller!SHFILL1_RVT!x287120y350960
*1938 xofiller!SHFILL1_RVT!x288640y350960
*1939 xofiller!SHFILL1_RVT!x290160y350960
*1940 xofiller!SHFILL1_RVT!x291680y350960
*1941 xofiller!SHFILL1_RVT!x293200y350960
*1942 xofiller!SHFILL1_RVT!x294720y350960
*1943 xofiller!SHFILL1_RVT!x296240y350960
*1944 xofiller!SHFILL1_RVT!x297760y350960
*1945 xofiller!SHFILL1_RVT!x299280y350960
*1946 xofiller!SHFILL1_RVT!x300800y350960
*1947 xofiller!SHFILL1_RVT!x302320y350960
*1948 xofiller!SHFILL1_RVT!x303840y350960
*1949 xofiller!SHFILL1_RVT!x305360y350960
*1950 xofiller!SHFILL1_RVT!x306880y350960
*1951 xofiller!SHFILL1_RVT!x308400y350960
*1952 xofiller!SHFILL1_RVT!x309920y350960
*1953 xofiller!SHFILL1_RVT!x311440y350960
*1954 xofiller!SHFILL1_RVT!x325120y350960
*1955 xofiller!SHFILL1_RVT!x326640y350960
*1956 xofiller!SHFILL1_RVT!x328160y350960
*1957 xofiller!SHFILL1_RVT!x329680y350960
*1958 xofiller!SHFILL1_RVT!x331200y350960
*1959 xofiller!SHFILL1_RVT!x332720y350960
*1960 xofiller!SHFILL1_RVT!x334240y350960
*1961 xofiller!SHFILL1_RVT!x335760y350960
*1962 xofiller!SHFILL1_RVT!x337280y350960
*1963 xofiller!SHFILL1_RVT!x338800y350960
*1964 xofiller!SHFILL1_RVT!x340320y350960
*1965 xofiller!SHFILL1_RVT!x341840y350960
*1966 xofiller!SHFILL1_RVT!x343360y350960
*1967 xofiller!SHFILL1_RVT!x344880y350960
*1968 xofiller!SHFILL1_RVT!x346400y350960
*1969 xofiller!SHFILL1_RVT!x347920y350960
*1970 xofiller!SHFILL1_RVT!x349440y350960
*1971 xofiller!SHFILL1_RVT!x350960y350960
*1972 xofiller!SHFILL1_RVT!x352480y350960
*1973 xofiller!SHFILL1_RVT!x354000y350960
*1974 xofiller!SHFILL1_RVT!x355520y350960
*1975 xofiller!SHFILL1_RVT!x357040y350960
*1976 xofiller!SHFILL1_RVT!x358560y350960
*1977 xofiller!SHFILL1_RVT!x360080y350960
*1978 xofiller!SHFILL1_RVT!x361600y350960
*1979 xofiller!SHFILL1_RVT!x363120y350960
*1980 xofiller!SHFILL1_RVT!x407200y350960
*1981 xofiller!SHFILL1_RVT!x408720y350960
*1982 xofiller!SHFILL1_RVT!x410240y350960
*1983 xofiller!SHFILL1_RVT!x411760y350960
*1984 xofiller!SHFILL1_RVT!x413280y350960
*1985 xofiller!SHFILL1_RVT!x414800y350960
*1986 xofiller!SHFILL1_RVT!x416320y350960
*1987 xofiller!SHFILL1_RVT!x417840y350960
*1988 xofiller!SHFILL1_RVT!x419360y350960
*1989 xofiller!SHFILL1_RVT!x420880y350960
*1990 xofiller!SHFILL1_RVT!x422400y350960
*1991 xofiller!SHFILL1_RVT!x423920y350960
*1992 xofiller!SHFILL1_RVT!x439120y350960
*1993 xofiller!SHFILL1_RVT!x440640y350960
*1994 xofiller!SHFILL1_RVT!x442160y350960
*1995 xofiller!SHFILL1_RVT!x443680y350960
*1996 xofiller!SHFILL1_RVT!x445200y350960
*1997 xofiller!SHFILL1_RVT!x466480y350960
*1998 xofiller!SHFILL1_RVT!x468000y350960
*1999 xofiller!SHFILL1_RVT!x50000y367680
*2000 xofiller!SHFILL1_RVT!x60640y367680
*2001 xofiller!SHFILL1_RVT!x62160y367680
*2002 xofiller!SHFILL1_RVT!x63680y367680
*2003 xofiller!SHFILL1_RVT!x65200y367680
*2004 xofiller!SHFILL1_RVT!x66720y367680
*2005 xofiller!SHFILL1_RVT!x68240y367680
*2006 xofiller!SHFILL1_RVT!x69760y367680
*2007 xofiller!SHFILL1_RVT!x71280y367680
*2008 xofiller!SHFILL1_RVT!x72800y367680
*2009 xofiller!SHFILL1_RVT!x74320y367680
*2010 xofiller!SHFILL1_RVT!x75840y367680
*2011 xofiller!SHFILL1_RVT!x89520y367680
*2012 xofiller!SHFILL1_RVT!x91040y367680
*2013 xofiller!SHFILL1_RVT!x92560y367680
*2014 xofiller!SHFILL1_RVT!x94080y367680
*2015 xofiller!SHFILL1_RVT!x138160y367680
*2016 xofiller!SHFILL1_RVT!x364640y367680
*2017 xofiller!SHFILL1_RVT!x366160y367680
*2018 xofiller!SHFILL1_RVT!x367680y367680
*2019 xofiller!SHFILL1_RVT!x369200y367680
*2020 xofiller!SHFILL1_RVT!x370720y367680
*2021 xofiller!SHFILL1_RVT!x372240y367680
*2022 xofiller!SHFILL1_RVT!x373760y367680
*2023 xofiller!SHFILL1_RVT!x375280y367680
*2024 xofiller!SHFILL1_RVT!x376800y367680
*2025 xofiller!SHFILL1_RVT!x378320y367680
*2026 xofiller!SHFILL1_RVT!x379840y367680
*2027 xofiller!SHFILL1_RVT!x381360y367680
*2028 xofiller!SHFILL1_RVT!x382880y367680
*2029 xofiller!SHFILL1_RVT!x384400y367680
*2030 xofiller!SHFILL1_RVT!x385920y367680
*2031 xofiller!SHFILL1_RVT!x387440y367680
*2032 xofiller!SHFILL1_RVT!x388960y367680
*2033 xofiller!SHFILL1_RVT!x390480y367680
*2034 xofiller!SHFILL1_RVT!x392000y367680
*2035 xofiller!SHFILL1_RVT!x393520y367680
*2036 xofiller!SHFILL1_RVT!x395040y367680
*2037 xofiller!SHFILL1_RVT!x396560y367680
*2038 xofiller!SHFILL1_RVT!x398080y367680
*2039 xofiller!SHFILL1_RVT!x399600y367680
*2040 xofiller!SHFILL1_RVT!x401120y367680
*2041 xofiller!SHFILL1_RVT!x402640y367680
*2042 xofiller!SHFILL1_RVT!x404160y367680
*2043 xofiller!SHFILL1_RVT!x405680y367680
*2044 xofiller!SHFILL1_RVT!x407200y367680
*2045 xofiller!SHFILL1_RVT!x420880y367680
*2046 xofiller!SHFILL1_RVT!x422400y367680
*2047 xofiller!SHFILL1_RVT!x423920y367680
*2048 xofiller!SHFILL1_RVT!x425440y367680
*2049 xofiller!SHFILL1_RVT!x426960y367680
*2050 xofiller!SHFILL1_RVT!x428480y367680
*2051 xofiller!SHFILL1_RVT!x430000y367680
*2052 xofiller!SHFILL1_RVT!x431520y367680
*2053 xofiller!SHFILL1_RVT!x445200y367680
*2054 xofiller!SHFILL1_RVT!x446720y367680
*2055 xofiller!SHFILL1_RVT!x448240y367680
*2056 xofiller!SHFILL1_RVT!x449760y367680
*2057 xofiller!SHFILL1_RVT!x451280y367680
*2058 xofiller!SHFILL1_RVT!x452800y367680
*2059 xofiller!SHFILL1_RVT!x454320y367680
*2060 xofiller!SHFILL1_RVT!x455840y367680
*2061 xofiller!SHFILL1_RVT!x457360y367680
*2062 xofiller!SHFILL1_RVT!x458880y367680
*2063 xofiller!SHFILL1_RVT!x460400y367680
*2064 xofiller!SHFILL1_RVT!x461920y367680
*2065 xofiller!SHFILL1_RVT!x463440y367680
*2066 xofiller!SHFILL1_RVT!x50000y384400
*2067 xofiller!SHFILL1_RVT!x51520y384400
*2068 xofiller!SHFILL1_RVT!x60640y384400
*2069 xofiller!SHFILL1_RVT!x80400y384400
*2070 xofiller!SHFILL1_RVT!x81920y384400
*2071 xofiller!SHFILL1_RVT!x83440y384400
*2072 xofiller!SHFILL1_RVT!x84960y384400
*2073 xofiller!SHFILL1_RVT!x86480y384400
*2074 xofiller!SHFILL1_RVT!x88000y384400
*2075 xofiller!SHFILL1_RVT!x180720y384400
*2076 xofiller!SHFILL1_RVT!x182240y384400
*2077 xofiller!SHFILL1_RVT!x183760y384400
*2078 xofiller!SHFILL1_RVT!x185280y384400
*2079 xofiller!SHFILL1_RVT!x186800y384400
*2080 xofiller!SHFILL1_RVT!x188320y384400
*2081 xofiller!SHFILL1_RVT!x189840y384400
*2082 xofiller!SHFILL1_RVT!x191360y384400
*2083 xofiller!SHFILL1_RVT!x192880y384400
*2084 xofiller!SHFILL1_RVT!x194400y384400
*2085 xofiller!SHFILL1_RVT!x195920y384400
*2086 xofiller!SHFILL1_RVT!x197440y384400
*2087 xofiller!SHFILL1_RVT!x198960y384400
*2088 xofiller!SHFILL1_RVT!x200480y384400
*2089 xofiller!SHFILL1_RVT!x202000y384400
*2090 xofiller!SHFILL1_RVT!x203520y384400
*2091 xofiller!SHFILL1_RVT!x205040y384400
*2092 xofiller!SHFILL1_RVT!x206560y384400
*2093 xofiller!SHFILL1_RVT!x208080y384400
*2094 xofiller!SHFILL1_RVT!x209600y384400
*2095 xofiller!SHFILL1_RVT!x211120y384400
*2096 xofiller!SHFILL1_RVT!x212640y384400
*2097 xofiller!SHFILL1_RVT!x214160y384400
*2098 xofiller!SHFILL1_RVT!x215680y384400
*2099 xofiller!SHFILL1_RVT!x217200y384400
*2100 xofiller!SHFILL1_RVT!x218720y384400
*2101 xofiller!SHFILL1_RVT!x220240y384400
*2102 xofiller!SHFILL1_RVT!x221760y384400
*2103 xofiller!SHFILL1_RVT!x223280y384400
*2104 xofiller!SHFILL1_RVT!x224800y384400
*2105 xofiller!SHFILL1_RVT!x226320y384400
*2106 xofiller!SHFILL1_RVT!x227840y384400
*2107 xofiller!SHFILL1_RVT!x229360y384400
*2108 xofiller!SHFILL1_RVT!x230880y384400
*2109 xofiller!SHFILL1_RVT!x232400y384400
*2110 xofiller!SHFILL1_RVT!x233920y384400
*2111 xofiller!SHFILL1_RVT!x278000y384400
*2112 xofiller!SHFILL1_RVT!x279520y384400
*2113 xofiller!SHFILL1_RVT!x281040y384400
*2114 xofiller!SHFILL1_RVT!x413280y384400
*2115 xofiller!SHFILL1_RVT!x433040y384400
*2116 xofiller!SHFILL1_RVT!x434560y384400
*2117 xofiller!SHFILL1_RVT!x436080y384400
*2118 xofiller!SHFILL1_RVT!x437600y384400
*2119 xofiller!SHFILL1_RVT!x439120y384400
*2120 xofiller!SHFILL1_RVT!x440640y384400
*2121 xofiller!SHFILL1_RVT!x442160y384400
*2122 xofiller!SHFILL1_RVT!x443680y384400
*2123 xofiller!SHFILL1_RVT!x472560y384400
*2124 xofiller!SHFILL1_RVT!x474080y384400
*2125 xofiller!SHFILL1_RVT!x475600y384400
*2126 xofiller!SHFILL1_RVT!x50000y401120
*2127 xofiller!SHFILL1_RVT!x60640y401120
*2128 xofiller!SHFILL1_RVT!x62160y401120
*2129 xofiller!SHFILL1_RVT!x63680y401120
*2130 xofiller!SHFILL1_RVT!x65200y401120
*2131 xofiller!SHFILL1_RVT!x78880y401120
*2132 xofiller!SHFILL1_RVT!x80400y401120
*2133 xofiller!SHFILL1_RVT!x95600y401120
*2134 xofiller!SHFILL1_RVT!x97120y401120
*2135 xofiller!SHFILL1_RVT!x98640y401120
*2136 xofiller!SHFILL1_RVT!x100160y401120
*2137 xofiller!SHFILL1_RVT!x101680y401120
*2138 xofiller!SHFILL1_RVT!x103200y401120
*2139 xofiller!SHFILL1_RVT!x104720y401120
*2140 xofiller!SHFILL1_RVT!x106240y401120
*2141 xofiller!SHFILL1_RVT!x107760y401120
*2142 xofiller!SHFILL1_RVT!x109280y401120
*2143 xofiller!SHFILL1_RVT!x110800y401120
*2144 xofiller!SHFILL1_RVT!x112320y401120
*2145 xofiller!SHFILL1_RVT!x113840y401120
*2146 xofiller!SHFILL1_RVT!x115360y401120
*2147 xofiller!SHFILL1_RVT!x116880y401120
*2148 xofiller!SHFILL1_RVT!x118400y401120
*2149 xofiller!SHFILL1_RVT!x119920y401120
*2150 xofiller!SHFILL1_RVT!x121440y401120
*2151 xofiller!SHFILL1_RVT!x122960y401120
*2152 xofiller!SHFILL1_RVT!x124480y401120
*2153 xofiller!SHFILL1_RVT!x126000y401120
*2154 xofiller!SHFILL1_RVT!x127520y401120
*2155 xofiller!SHFILL1_RVT!x129040y401120
*2156 xofiller!SHFILL1_RVT!x130560y401120
*2157 xofiller!SHFILL1_RVT!x132080y401120
*2158 xofiller!SHFILL1_RVT!x133600y401120
*2159 xofiller!SHFILL1_RVT!x135120y401120
*2160 xofiller!SHFILL1_RVT!x136640y401120
*2161 xofiller!SHFILL1_RVT!x138160y401120
*2162 xofiller!SHFILL1_RVT!x139680y401120
*2163 xofiller!SHFILL1_RVT!x141200y401120
*2164 xofiller!SHFILL1_RVT!x142720y401120
*2165 xofiller!SHFILL1_RVT!x144240y401120
*2166 xofiller!SHFILL1_RVT!x145760y401120
*2167 xofiller!SHFILL1_RVT!x147280y401120
*2168 xofiller!SHFILL1_RVT!x148800y401120
*2169 xofiller!SHFILL1_RVT!x150320y401120
*2170 xofiller!SHFILL1_RVT!x151840y401120
*2171 xofiller!SHFILL1_RVT!x153360y401120
*2172 xofiller!SHFILL1_RVT!x154880y401120
*2173 xofiller!SHFILL1_RVT!x156400y401120
*2174 xofiller!SHFILL1_RVT!x157920y401120
*2175 xofiller!SHFILL1_RVT!x159440y401120
*2176 xofiller!SHFILL1_RVT!x160960y401120
*2177 xofiller!SHFILL1_RVT!x162480y401120
*2178 xofiller!SHFILL1_RVT!x164000y401120
*2179 xofiller!SHFILL1_RVT!x165520y401120
*2180 xofiller!SHFILL1_RVT!x167040y401120
*2181 xofiller!SHFILL1_RVT!x168560y401120
*2182 xofiller!SHFILL1_RVT!x170080y401120
*2183 xofiller!SHFILL1_RVT!x171600y401120
*2184 xofiller!SHFILL1_RVT!x173120y401120
*2185 xofiller!SHFILL1_RVT!x174640y401120
*2186 xofiller!SHFILL1_RVT!x176160y401120
*2187 xofiller!SHFILL1_RVT!x177680y401120
*2188 xofiller!SHFILL1_RVT!x236960y401120
*2189 xofiller!SHFILL1_RVT!x238480y401120
*2190 xofiller!SHFILL1_RVT!x240000y401120
*2191 xofiller!SHFILL1_RVT!x241520y401120
*2192 xofiller!SHFILL1_RVT!x243040y401120
*2193 xofiller!SHFILL1_RVT!x244560y401120
*2194 xofiller!SHFILL1_RVT!x262800y401120
*2195 xofiller!SHFILL1_RVT!x264320y401120
*2196 xofiller!SHFILL1_RVT!x265840y401120
*2197 xofiller!SHFILL1_RVT!x267360y401120
*2198 xofiller!SHFILL1_RVT!x268880y401120
*2199 xofiller!SHFILL1_RVT!x270400y401120
*2200 xofiller!SHFILL1_RVT!x290160y401120
*2201 xofiller!SHFILL1_RVT!x291680y401120
*2202 xofiller!SHFILL1_RVT!x293200y401120
*2203 xofiller!SHFILL1_RVT!x294720y401120
*2204 xofiller!SHFILL1_RVT!x296240y401120
*2205 xofiller!SHFILL1_RVT!x297760y401120
*2206 xofiller!SHFILL1_RVT!x299280y401120
*2207 xofiller!SHFILL1_RVT!x300800y401120
*2208 xofiller!SHFILL1_RVT!x302320y401120
*2209 xofiller!SHFILL1_RVT!x303840y401120
*2210 xofiller!SHFILL1_RVT!x305360y401120
*2211 xofiller!SHFILL1_RVT!x306880y401120
*2212 xofiller!SHFILL1_RVT!x308400y401120
*2213 xofiller!SHFILL1_RVT!x309920y401120
*2214 xofiller!SHFILL1_RVT!x311440y401120
*2215 xofiller!SHFILL1_RVT!x312960y401120
*2216 xofiller!SHFILL1_RVT!x329680y401120
*2217 xofiller!SHFILL1_RVT!x331200y401120
*2218 xofiller!SHFILL1_RVT!x332720y401120
*2219 xofiller!SHFILL1_RVT!x334240y401120
*2220 xofiller!SHFILL1_RVT!x335760y401120
*2221 xofiller!SHFILL1_RVT!x346400y401120
*2222 xofiller!SHFILL1_RVT!x347920y401120
*2223 xofiller!SHFILL1_RVT!x349440y401120
*2224 xofiller!SHFILL1_RVT!x367680y401120
*2225 xofiller!SHFILL1_RVT!x369200y401120
*2226 xofiller!SHFILL1_RVT!x413280y401120
*2227 xofiller!SHFILL1_RVT!x414800y401120
*2228 xofiller!SHFILL1_RVT!x416320y401120
*2229 xofiller!SHFILL1_RVT!x417840y401120
*2230 xofiller!SHFILL1_RVT!x419360y401120
*2231 xofiller!SHFILL1_RVT!x428480y401120
*2232 xofiller!SHFILL1_RVT!x430000y401120
*2233 xofiller!SHFILL1_RVT!x431520y401120
*2234 xofiller!SHFILL1_RVT!x433040y401120
*2235 xofiller!SHFILL1_RVT!x454320y401120
*2236 xofiller!SHFILL1_RVT!x455840y401120
*2237 xofiller!SHFILL1_RVT!x457360y401120
*2238 xofiller!SHFILL1_RVT!x458880y401120
*2239 xofiller!SHFILL1_RVT!x460400y401120
*2240 xofiller!SHFILL1_RVT!x461920y401120
*2241 xofiller!SHFILL1_RVT!x463440y401120
*2242 xofiller!SHFILL1_RVT!x464960y401120
*2243 xofiller!SHFILL1_RVT!x466480y401120
*2244 xofiller!SHFILL1_RVT!x57600y417840
*2245 xofiller!SHFILL1_RVT!x59120y417840
*2246 xofiller!SHFILL1_RVT!x60640y417840
*2247 xofiller!SHFILL1_RVT!x62160y417840
*2248 xofiller!SHFILL1_RVT!x63680y417840
*2249 xofiller!SHFILL1_RVT!x72800y417840
*2250 xofiller!SHFILL1_RVT!x74320y417840
*2251 xofiller!SHFILL1_RVT!x75840y417840
*2252 xofiller!SHFILL1_RVT!x77360y417840
*2253 xofiller!SHFILL1_RVT!x78880y417840
*2254 xofiller!SHFILL1_RVT!x80400y417840
*2255 xofiller!SHFILL1_RVT!x81920y417840
*2256 xofiller!SHFILL1_RVT!x83440y417840
*2257 xofiller!SHFILL1_RVT!x103200y417840
*2258 xofiller!SHFILL1_RVT!x194400y417840
*2259 xofiller!SHFILL1_RVT!x240000y417840
*2260 xofiller!SHFILL1_RVT!x241520y417840
*2261 xofiller!SHFILL1_RVT!x243040y417840
*2262 xofiller!SHFILL1_RVT!x244560y417840
*2263 xofiller!SHFILL1_RVT!x246080y417840
*2264 xofiller!SHFILL1_RVT!x247600y417840
*2265 xofiller!SHFILL1_RVT!x249120y417840
*2266 xofiller!SHFILL1_RVT!x250640y417840
*2267 xofiller!SHFILL1_RVT!x252160y417840
*2268 xofiller!SHFILL1_RVT!x253680y417840
*2269 xofiller!SHFILL1_RVT!x255200y417840
*2270 xofiller!SHFILL1_RVT!x256720y417840
*2271 xofiller!SHFILL1_RVT!x258240y417840
*2272 xofiller!SHFILL1_RVT!x259760y417840
*2273 xofiller!SHFILL1_RVT!x261280y417840
*2274 xofiller!SHFILL1_RVT!x262800y417840
*2275 xofiller!SHFILL1_RVT!x284080y417840
*2276 xofiller!SHFILL1_RVT!x285600y417840
*2277 xofiller!SHFILL1_RVT!x287120y417840
*2278 xofiller!SHFILL1_RVT!x288640y417840
*2279 xofiller!SHFILL1_RVT!x290160y417840
*2280 xofiller!SHFILL1_RVT!x314480y417840
*2281 xofiller!SHFILL1_RVT!x316000y417840
*2282 xofiller!SHFILL1_RVT!x317520y417840
*2283 xofiller!SHFILL1_RVT!x319040y417840
*2284 xofiller!SHFILL1_RVT!x320560y417840
*2285 xofiller!SHFILL1_RVT!x322080y417840
*2286 xofiller!SHFILL1_RVT!x323600y417840
*2287 xofiller!SHFILL1_RVT!x338800y417840
*2288 xofiller!SHFILL1_RVT!x340320y417840
*2289 xofiller!SHFILL1_RVT!x341840y417840
*2290 xofiller!SHFILL1_RVT!x343360y417840
*2291 xofiller!SHFILL1_RVT!x360080y417840
*2292 xofiller!SHFILL1_RVT!x361600y417840
*2293 xofiller!SHFILL1_RVT!x363120y417840
*2294 xofiller!SHFILL1_RVT!x364640y417840
*2295 xofiller!SHFILL1_RVT!x420880y417840
*2296 xofiller!SHFILL1_RVT!x422400y417840
*2297 xofiller!SHFILL1_RVT!x443680y417840
*2298 xofiller!SHFILL1_RVT!x445200y417840
*2299 xofiller!SHFILL1_RVT!x475600y417840
*2300 xofiller!SHFILL1_RVT!x50000y434560
*2301 xofiller!SHFILL1_RVT!x51520y434560
*2302 xofiller!SHFILL1_RVT!x53040y434560
*2303 xofiller!SHFILL1_RVT!x54560y434560
*2304 xofiller!SHFILL1_RVT!x56080y434560
*2305 xofiller!SHFILL1_RVT!x57600y434560
*2306 xofiller!SHFILL1_RVT!x59120y434560
*2307 xofiller!SHFILL1_RVT!x60640y434560
*2308 xofiller!SHFILL1_RVT!x62160y434560
*2309 xofiller!SHFILL1_RVT!x71280y434560
*2310 xofiller!SHFILL1_RVT!x72800y434560
*2311 xofiller!SHFILL1_RVT!x74320y434560
*2312 xofiller!SHFILL1_RVT!x75840y434560
*2313 xofiller!SHFILL1_RVT!x77360y434560
*2314 xofiller!SHFILL1_RVT!x88000y434560
*2315 xofiller!SHFILL1_RVT!x89520y434560
*2316 xofiller!SHFILL1_RVT!x91040y434560
*2317 xofiller!SHFILL1_RVT!x92560y434560
*2318 xofiller!SHFILL1_RVT!x94080y434560
*2319 xofiller!SHFILL1_RVT!x95600y434560
*2320 xofiller!SHFILL1_RVT!x97120y434560
*2321 xofiller!SHFILL1_RVT!x98640y434560
*2322 xofiller!SHFILL1_RVT!x100160y434560
*2323 xofiller!SHFILL1_RVT!x101680y434560
*2324 xofiller!SHFILL1_RVT!x147280y434560
*2325 xofiller!SHFILL1_RVT!x148800y434560
*2326 xofiller!SHFILL1_RVT!x150320y434560
*2327 xofiller!SHFILL1_RVT!x151840y434560
*2328 xofiller!SHFILL1_RVT!x153360y434560
*2329 xofiller!SHFILL1_RVT!x154880y434560
*2330 xofiller!SHFILL1_RVT!x156400y434560
*2331 xofiller!SHFILL1_RVT!x165520y434560
*2332 xofiller!SHFILL1_RVT!x167040y434560
*2333 xofiller!SHFILL1_RVT!x168560y434560
*2334 xofiller!SHFILL1_RVT!x170080y434560
*2335 xofiller!SHFILL1_RVT!x171600y434560
*2336 xofiller!SHFILL1_RVT!x173120y434560
*2337 xofiller!SHFILL1_RVT!x174640y434560
*2338 xofiller!SHFILL1_RVT!x176160y434560
*2339 xofiller!SHFILL1_RVT!x177680y434560
*2340 xofiller!SHFILL1_RVT!x179200y434560
*2341 xofiller!SHFILL1_RVT!x180720y434560
*2342 xofiller!SHFILL1_RVT!x182240y434560
*2343 xofiller!SHFILL1_RVT!x183760y434560
*2344 xofiller!SHFILL1_RVT!x185280y434560
*2345 xofiller!SHFILL1_RVT!x186800y434560
*2346 xofiller!SHFILL1_RVT!x188320y434560
*2347 xofiller!SHFILL1_RVT!x189840y434560
*2348 xofiller!SHFILL1_RVT!x191360y434560
*2349 xofiller!SHFILL1_RVT!x192880y434560
*2350 xofiller!SHFILL1_RVT!x194400y434560
*2351 xofiller!SHFILL1_RVT!x195920y434560
*2352 xofiller!SHFILL1_RVT!x197440y434560
*2353 xofiller!SHFILL1_RVT!x198960y434560
*2354 xofiller!SHFILL1_RVT!x200480y434560
*2355 xofiller!SHFILL1_RVT!x202000y434560
*2356 xofiller!SHFILL1_RVT!x203520y434560
*2357 xofiller!SHFILL1_RVT!x205040y434560
*2358 xofiller!SHFILL1_RVT!x206560y434560
*2359 xofiller!SHFILL1_RVT!x208080y434560
*2360 xofiller!SHFILL1_RVT!x217200y434560
*2361 xofiller!SHFILL1_RVT!x218720y434560
*2362 xofiller!SHFILL1_RVT!x220240y434560
*2363 xofiller!SHFILL1_RVT!x221760y434560
*2364 xofiller!SHFILL1_RVT!x223280y434560
*2365 xofiller!SHFILL1_RVT!x224800y434560
*2366 xofiller!SHFILL1_RVT!x226320y434560
*2367 xofiller!SHFILL1_RVT!x227840y434560
*2368 xofiller!SHFILL1_RVT!x229360y434560
*2369 xofiller!SHFILL1_RVT!x230880y434560
*2370 xofiller!SHFILL1_RVT!x232400y434560
*2371 xofiller!SHFILL1_RVT!x253680y434560
*2372 xofiller!SHFILL1_RVT!x264320y434560
*2373 xofiller!SHFILL1_RVT!x265840y434560
*2374 xofiller!SHFILL1_RVT!x267360y434560
*2375 xofiller!SHFILL1_RVT!x268880y434560
*2376 xofiller!SHFILL1_RVT!x270400y434560
*2377 xofiller!SHFILL1_RVT!x271920y434560
*2378 xofiller!SHFILL1_RVT!x273440y434560
*2379 xofiller!SHFILL1_RVT!x274960y434560
*2380 xofiller!SHFILL1_RVT!x276480y434560
*2381 xofiller!SHFILL1_RVT!x278000y434560
*2382 xofiller!SHFILL1_RVT!x279520y434560
*2383 xofiller!SHFILL1_RVT!x281040y434560
*2384 xofiller!SHFILL1_RVT!x282560y434560
*2385 xofiller!SHFILL1_RVT!x284080y434560
*2386 xofiller!SHFILL1_RVT!x300800y434560
*2387 xofiller!SHFILL1_RVT!x302320y434560
*2388 xofiller!SHFILL1_RVT!x303840y434560
*2389 xofiller!SHFILL1_RVT!x305360y434560
*2390 xofiller!SHFILL1_RVT!x322080y434560
*2391 xofiller!SHFILL1_RVT!x369200y434560
*2392 xofiller!SHFILL1_RVT!x370720y434560
*2393 xofiller!SHFILL1_RVT!x372240y434560
*2394 xofiller!SHFILL1_RVT!x373760y434560
*2395 xofiller!SHFILL1_RVT!x375280y434560
*2396 xofiller!SHFILL1_RVT!x376800y434560
*2397 xofiller!SHFILL1_RVT!x378320y434560
*2398 xofiller!SHFILL1_RVT!x379840y434560
*2399 xofiller!SHFILL1_RVT!x381360y434560
*2400 xofiller!SHFILL1_RVT!x382880y434560
*2401 xofiller!SHFILL1_RVT!x384400y434560
*2402 xofiller!SHFILL1_RVT!x385920y434560
*2403 xofiller!SHFILL1_RVT!x387440y434560
*2404 xofiller!SHFILL1_RVT!x388960y434560
*2405 xofiller!SHFILL1_RVT!x390480y434560
*2406 xofiller!SHFILL1_RVT!x392000y434560
*2407 xofiller!SHFILL1_RVT!x393520y434560
*2408 xofiller!SHFILL1_RVT!x395040y434560
*2409 xofiller!SHFILL1_RVT!x396560y434560
*2410 xofiller!SHFILL1_RVT!x398080y434560
*2411 xofiller!SHFILL1_RVT!x399600y434560
*2412 xofiller!SHFILL1_RVT!x401120y434560
*2413 xofiller!SHFILL1_RVT!x402640y434560
*2414 xofiller!SHFILL1_RVT!x404160y434560
*2415 xofiller!SHFILL1_RVT!x405680y434560
*2416 xofiller!SHFILL1_RVT!x407200y434560
*2417 xofiller!SHFILL1_RVT!x408720y434560
*2418 xofiller!SHFILL1_RVT!x410240y434560
*2419 xofiller!SHFILL1_RVT!x411760y434560
*2420 xofiller!SHFILL1_RVT!x413280y434560
*2421 xofiller!SHFILL1_RVT!x414800y434560
*2422 xofiller!SHFILL1_RVT!x416320y434560
*2423 xofiller!SHFILL1_RVT!x417840y434560
*2424 xofiller!SHFILL1_RVT!x419360y434560
*2425 xofiller!SHFILL1_RVT!x420880y434560
*2426 xofiller!SHFILL1_RVT!x422400y434560
*2427 xofiller!SHFILL1_RVT!x423920y434560
*2428 xofiller!SHFILL1_RVT!x425440y434560
*2429 xofiller!SHFILL1_RVT!x426960y434560
*2430 xofiller!SHFILL1_RVT!x428480y434560
*2431 xofiller!SHFILL1_RVT!x430000y434560
*2432 xofiller!SHFILL1_RVT!x431520y434560
*2433 xofiller!SHFILL1_RVT!x433040y434560
*2434 xofiller!SHFILL1_RVT!x434560y434560
*2435 xofiller!SHFILL1_RVT!x436080y434560
*2436 xofiller!SHFILL1_RVT!x437600y434560
*2437 xofiller!SHFILL1_RVT!x439120y434560
*2438 xofiller!SHFILL1_RVT!x440640y434560
*2439 xofiller!SHFILL1_RVT!x442160y434560
*2440 xofiller!SHFILL1_RVT!x443680y434560
*2441 xofiller!SHFILL1_RVT!x445200y434560
*2442 xofiller!SHFILL1_RVT!x446720y434560
*2443 xofiller!SHFILL1_RVT!x448240y434560
*2444 xofiller!SHFILL1_RVT!x449760y434560
*2445 xofiller!SHFILL1_RVT!x451280y434560
*2446 xofiller!SHFILL1_RVT!x471040y434560
*2447 xofiller!SHFILL1_RVT!x472560y434560
*2448 xofiller!SHFILL1_RVT!x474080y434560
*2449 xofiller!SHFILL1_RVT!x475600y434560
*2450 xofiller!SHFILL1_RVT!x57600y451280
*2451 xofiller!SHFILL1_RVT!x59120y451280
*2452 xofiller!SHFILL1_RVT!x60640y451280
*2453 xofiller!SHFILL1_RVT!x62160y451280
*2454 xofiller!SHFILL1_RVT!x63680y451280
*2455 xofiller!SHFILL1_RVT!x65200y451280
*2456 xofiller!SHFILL1_RVT!x66720y451280
*2457 xofiller!SHFILL1_RVT!x68240y451280
*2458 xofiller!SHFILL1_RVT!x69760y451280
*2459 xofiller!SHFILL1_RVT!x71280y451280
*2460 xofiller!SHFILL1_RVT!x72800y451280
*2461 xofiller!SHFILL1_RVT!x74320y451280
*2462 xofiller!SHFILL1_RVT!x75840y451280
*2463 xofiller!SHFILL1_RVT!x77360y451280
*2464 xofiller!SHFILL1_RVT!x78880y451280
*2465 xofiller!SHFILL1_RVT!x80400y451280
*2466 xofiller!SHFILL1_RVT!x81920y451280
*2467 xofiller!SHFILL1_RVT!x83440y451280
*2468 xofiller!SHFILL1_RVT!x84960y451280
*2469 xofiller!SHFILL1_RVT!x86480y451280
*2470 xofiller!SHFILL1_RVT!x88000y451280
*2471 xofiller!SHFILL1_RVT!x89520y451280
*2472 xofiller!SHFILL1_RVT!x91040y451280
*2473 xofiller!SHFILL1_RVT!x92560y451280
*2474 xofiller!SHFILL1_RVT!x94080y451280
*2475 xofiller!SHFILL1_RVT!x95600y451280
*2476 xofiller!SHFILL1_RVT!x97120y451280
*2477 xofiller!SHFILL1_RVT!x113840y451280
*2478 xofiller!SHFILL1_RVT!x115360y451280
*2479 xofiller!SHFILL1_RVT!x116880y451280
*2480 xofiller!SHFILL1_RVT!x118400y451280
*2481 xofiller!SHFILL1_RVT!x119920y451280
*2482 xofiller!SHFILL1_RVT!x121440y451280
*2483 xofiller!SHFILL1_RVT!x122960y451280
*2484 xofiller!SHFILL1_RVT!x124480y451280
*2485 xofiller!SHFILL1_RVT!x126000y451280
*2486 xofiller!SHFILL1_RVT!x127520y451280
*2487 xofiller!SHFILL1_RVT!x129040y451280
*2488 xofiller!SHFILL1_RVT!x130560y451280
*2489 xofiller!SHFILL1_RVT!x132080y451280
*2490 xofiller!SHFILL1_RVT!x133600y451280
*2491 xofiller!SHFILL1_RVT!x135120y451280
*2492 xofiller!SHFILL1_RVT!x136640y451280
*2493 xofiller!SHFILL1_RVT!x138160y451280
*2494 xofiller!SHFILL1_RVT!x139680y451280
*2495 xofiller!SHFILL1_RVT!x141200y451280
*2496 xofiller!SHFILL1_RVT!x160960y451280
*2497 xofiller!SHFILL1_RVT!x180720y451280
*2498 xofiller!SHFILL1_RVT!x182240y451280
*2499 xofiller!SHFILL1_RVT!x206560y451280
*2500 xofiller!SHFILL1_RVT!x208080y451280
*2501 xofiller!SHFILL1_RVT!x209600y451280
*2502 xofiller!SHFILL1_RVT!x218720y451280
*2503 xofiller!SHFILL1_RVT!x238480y451280
*2504 xofiller!SHFILL1_RVT!x284080y451280
*2505 xofiller!SHFILL1_RVT!x285600y451280
*2506 xofiller!SHFILL1_RVT!x305360y451280
*2507 xofiller!SHFILL1_RVT!x306880y451280
*2508 xofiller!SHFILL1_RVT!x308400y451280
*2509 xofiller!SHFILL1_RVT!x309920y451280
*2510 xofiller!SHFILL1_RVT!x311440y451280
*2511 xofiller!SHFILL1_RVT!x312960y451280
*2512 xofiller!SHFILL1_RVT!x314480y451280
*2513 xofiller!SHFILL1_RVT!x316000y451280
*2514 xofiller!SHFILL1_RVT!x317520y451280
*2515 xofiller!SHFILL1_RVT!x319040y451280
*2516 xofiller!SHFILL1_RVT!x320560y451280
*2517 xofiller!SHFILL1_RVT!x322080y451280
*2518 xofiller!SHFILL1_RVT!x323600y451280
*2519 xofiller!SHFILL1_RVT!x325120y451280
*2520 xofiller!SHFILL1_RVT!x326640y451280
*2521 xofiller!SHFILL1_RVT!x328160y451280
*2522 xofiller!SHFILL1_RVT!x329680y451280
*2523 xofiller!SHFILL1_RVT!x331200y451280
*2524 xofiller!SHFILL1_RVT!x332720y451280
*2525 xofiller!SHFILL1_RVT!x334240y451280
*2526 xofiller!SHFILL1_RVT!x335760y451280
*2527 xofiller!SHFILL1_RVT!x337280y451280
*2528 xofiller!SHFILL1_RVT!x338800y451280
*2529 xofiller!SHFILL1_RVT!x340320y451280
*2530 xofiller!SHFILL1_RVT!x341840y451280
*2531 xofiller!SHFILL1_RVT!x343360y451280
*2532 xofiller!SHFILL1_RVT!x344880y451280
*2533 xofiller!SHFILL1_RVT!x354000y451280
*2534 xofiller!SHFILL1_RVT!x355520y451280
*2535 xofiller!SHFILL1_RVT!x357040y451280
*2536 xofiller!SHFILL1_RVT!x358560y451280
*2537 xofiller!SHFILL1_RVT!x360080y451280
*2538 xofiller!SHFILL1_RVT!x361600y451280
*2539 xofiller!SHFILL1_RVT!x363120y451280
*2540 xofiller!SHFILL1_RVT!x364640y451280
*2541 xofiller!SHFILL1_RVT!x366160y451280
*2542 xofiller!SHFILL1_RVT!x442160y451280
*2543 xofiller!SHFILL1_RVT!x443680y451280
*2544 xofiller!SHFILL1_RVT!x460400y451280
*2545 xofiller!SHFILL1_RVT!x461920y451280
*2546 xofiller!SHFILL1_RVT!x463440y451280
*2547 xofiller!SHFILL1_RVT!x464960y451280
*2548 xofiller!SHFILL1_RVT!x466480y451280
*2549 xofiller!SHFILL1_RVT!x468000y451280
*2550 fsm1/HFSNET_0
*2551 HFSNET_0
*2552 one_second
*2553 one_minute
*2554 load_new_c
*2555 load_new_a
*2556 shift
*2557 show_a
*2558 show_current_time
*2559 HFSNET_2
*2560 n92_CDR1
*2561 n93
*2562 n94
*2563 n95
*2564 n96
*2565 n97
*2566 n98
*2567 n99
*2568 n100
*2569 n101
*2570 ZCTSNET_9
*2571 ZCTSNET_10
*2572 n107
*2573 n108
*2574 n109
*2575 n110_CDR1
*2576 n111
*2577 n112
*2578 n113
*2579 n114
*2580 n115
*2581 n116
*2582 n117
*2583 n118
*2584 n119
*2585 n120
*2586 n121_CDR1
*2587 n122
*2588 ctosc_gls_0
*2589 ZBUF_324_0
*2590 ZBUF_91_0
*2591 n127
*2592 n128
*2593 n129
*2594 n130
*2595 n131
*2596 n132
*2597 n133
*2598 n134
*2599 n135
*2600 n136
*2601 n137
*2602 n138
*2603 n139
*2604 n140
*2605 n141
*2606 n142
*2607 n143
*2608 n144
*2609 n145
*2610 n146
*2611 n147
*2612 n148
*2613 key_buffer_ms_min[3]
*2614 key_buffer_ms_min[2]
*2615 key_buffer_ms_min[1]
*2616 key_buffer_ms_min[0]
*2617 key_buffer_ls_min[3]
*2618 key_buffer_ls_min[2]
*2619 key_buffer_ls_min[1]
*2620 key_buffer_ls_min[0]
*2621 key_buffer_ms_hr[3]
*2622 key_buffer_ms_hr[2]
*2623 key_buffer_ms_hr[1]
*2624 key_buffer_ms_hr[0]
*2625 key_buffer_ls_hr[3]
*2626 key_buffer_ls_hr[2]
*2627 key_buffer_ls_hr[1]
*2628 key_buffer_ls_hr[0]
*2629 current_time_ms_min[3]
*2630 current_time_ms_min[2]
*2631 current_time_ms_min[1]
*2632 current_time_ms_min[0]
*2633 current_time_ls_min[3]
*2634 current_time_ls_min[2]
*2635 current_time_ls_min[1]
*2636 current_time_ls_min[0]
*2637 current_time_ms_hr[3]
*2638 current_time_ms_hr[2]
*2639 current_time_ms_hr[1]
*2640 current_time_ms_hr[0]
*2641 current_time_ls_hr[3]
*2642 current_time_ls_hr[2]
*2643 current_time_ls_hr[1]
*2644 current_time_ls_hr[0]
*2645 alarm_time_ms_hr[3]
*2646 alarm_time_ms_hr[2]
*2647 alarm_time_ms_hr[1]
*2648 alarm_time_ms_hr[0]
*2649 alarm_time_ls_hr[3]
*2650 alarm_time_ls_hr[2]
*2651 alarm_time_ls_hr[1]
*2652 alarm_time_ls_hr[0]
*2653 alarm_time_ms_min[3]
*2654 alarm_time_ms_min[2]
*2655 alarm_time_ms_min[1]
*2656 alarm_time_ms_min[0]
*2657 alarm_time_ls_min[3]
*2658 alarm_time_ls_min[2]
*2659 alarm_time_ls_min[1]
*2660 alarm_time_ls_min[0]
*2661 HFSNET_1
*2662 tgen1/one_minute_reg
*2663 tgen1/N21
*2664 tgen1/N22
*2665 tgen1/N23
*2666 tgen1/N24
*2667 tgen1/N25
*2668 tgen1/N26
*2669 tgen1/N27
*2670 tgen1/N28
*2671 tgen1/N29
*2672 tgen1/N30
*2673 tgen1/N31
*2674 tgen1/N32
*2675 tgen1/N33
*2676 tgen1/N34
*2677 tgen1/N35
*2678 tgen1/N39
*2679 HFSNET_4
*2680 tgen1/n1
*2681 tgen1/n2
*2682 ZBUF_597_0
*2683 ZBUF_1182_0
*2684 tgen1/n5
*2685 tgen1/n6
*2686 tgen1/n9
*2687 tgen1/n10
*2688 tgen1/n14
*2689 tgen1/n15
*2690 tgen1/n18
*2691 tgen1/n21
*2692 tgen1/n22
*2693 tgen1/n25
*2694 tgen1/n26
*2695 tgen1/n29
*2696 tgen1/n30
*2697 tgen1/n33
*2698 tgen1/n34
*2699 tgen1/n37
*2700 tgen1/n41
*2701 tgen1/n45
*2702 tgen1/n48
*2703 tgen1/n49
*2704 tgen1/n50
*2705 tgen1/n51
*2706 tgen1/n54
*2707 tgen1/n55
*2708 tgen1/n56
*2709 tgen1/count[13]
*2710 tgen1/count[12]
*2711 tgen1/count[11]
*2712 tgen1/count[10]
*2713 tgen1/count[9]
*2714 tgen1/count[8]
*2715 tgen1/count[7]
*2716 tgen1/count[6]
*2717 tgen1/count[5]
*2718 tgen1/count[4]
*2719 tgen1/count[3]
*2720 tgen1/count[2]
*2721 tgen1/count[1]
*2722 tgen1/count[0]
*2723 count1/n91
*2724 count1/n92
*2725 count1/n93
*2726 count1/n94
*2727 count1/n95
*2728 count1/n96
*2729 count1/n97
*2730 count1/n98
*2731 count1/n99
*2732 count1/n100
*2733 count1/n101
*2734 count1/n102
*2735 count1/n103
*2736 count1/n104
*2737 count1/n105
*2738 count1/n106
*2739 count1/n1_CDR1
*2740 count1/n2_CDR1
*2741 count1/n3
*2742 count1/n4
*2743 count1/n5
*2744 count1/n6
*2745 count1/n9
*2746 count1/n10
*2747 count1/n11
*2748 count1/n12
*2749 count1/n13
*2750 count1/n14
*2751 count1/n15
*2752 count1/n16
*2753 count1/n17
*2754 count1/n18
*2755 count1/n19
*2756 count1/n20
*2757 count1/n21
*2758 count1/n22
*2759 count1/n23
*2760 count1/n24
*2761 count1/n25
*2762 count1/n27
*2763 count1/n28
*2764 count1/n29
*2765 count1/n30
*2766 count1/n31
*2767 count1/n32
*2768 count1/n33
*2769 count1/n34
*2770 count1/n36
*2771 count1/n37
*2772 count1/n38
*2773 count1/n42
*2774 count1/n43
*2775 count1/n44
*2776 count1/n45
*2777 count1/n46
*2778 HFSNET_3
*2779 count1/n48
*2780 count1/n51
*2781 count1/n52
*2782 count1/n53
*2783 count1/n54
*2784 count1/n55
*2785 count1/n56
*2786 count1/n57
*2787 count1/n58
*2788 count1/n59
*2789 count1/n60
*2790 count1/n61
*2791 count1/n62
*2792 count1/n63
*2793 count1/n64
*2794 count1/n66
*2795 count1/n67
*2796 count1/n68
*2797 count1/n69
*2798 count1/n70
*2799 count1/n71
*2800 count1/n72
*2801 count1/n73
*2802 count1/n74
*2803 count1/n76
*2804 count1/n77
*2805 count1/n78
*2806 count1/n79
*2807 count1/n80
*2808 count1/n81
*2809 alreg1/n3
*2810 alreg1/n5
*2811 alreg1/n7
*2812 alreg1/n9
*2813 alreg1/n11
*2814 alreg1/n13
*2815 alreg1/n15
*2816 alreg1/n17
*2817 alreg1/n19
*2818 alreg1/n21
*2819 alreg1/n23
*2820 alreg1/n25
*2821 alreg1/n27
*2822 alreg1/n29
*2823 alreg1/n31
*2824 alreg1/n33
*2825 alreg1/HFSNET_0
*2826 keyreg1/HFSNET_0
*2827 keyreg1/n3
*2828 keyreg1/n5
*2829 keyreg1/n7
*2830 keyreg1/n9
*2831 keyreg1/n11
*2832 keyreg1/n13
*2833 keyreg1/n15
*2834 keyreg1/n17
*2835 keyreg1/n19
*2836 keyreg1/n21
*2837 keyreg1/n23
*2838 keyreg1/n25
*2839 keyreg1/n27
*2840 keyreg1/n29
*2841 keyreg1/n31
*2842 keyreg1/n33
*2843 keyreg1/HFSNET_1
*2844 alreg1/HFSNET_1
*2845 fsm1/n60
*2846 fsm1/n61
*2847 fsm1/n62
*2848 fsm1/n63
*2849 fsm1/n64
*2850 fsm1/n65
*2851 fsm1/n66
*2852 fsm1/n67
*2853 alreg1/HFSNET_2
*2854 fsm1/n4
*2855 fsm1/n6
*2856 fsm1/n10
*2857 fsm1/n11
*2858 fsm1/n12
*2859 fsm1/n13
*2860 fsm1/n14
*2861 fsm1/n15
*2862 fsm1/n16
*2863 fsm1/n17
*2864 fsm1/n18
*2865 fsm1/n19
*2866 fsm1/n20
*2867 fsm1/n21
*2868 fsm1/n22
*2869 fsm1/n23
*2870 fsm1/n24
*2871 fsm1/n26
*2872 fsm1/n27
*2873 fsm1/n28
*2874 fsm1/n29
*2875 fsm1/n30
*2876 fsm1/n31
*2877 fsm1/n32
*2878 fsm1/n33
*2879 fsm1/n34
*2880 fsm1/n35
*2881 fsm1/n36
*2882 fsm1/n37
*2883 fsm1/n38
*2884 fsm1/n39
*2885 fsm1/n41
*2886 fsm1/n42
*2887 fsm1/n43
*2888 fsm1/n44
*2889 fsm1/n45
*2890 fsm1/n46
*2891 fsm1/n47
*2892 fsm1/n48
*2893 fsm1/n50
*2894 fsm1/count1[3]
*2895 fsm1/count1[2]
*2896 fsm1/count1[1]
*2897 fsm1/count1[0]
*2898 fsm1/pre_state[2]
*2899 fsm1/pre_state[1]
*2900 fsm1/pre_state[0]
*2901 fsm1/count2[3]
*2902 fsm1/count2[2]
*2903 fsm1/count2[1]
*2904 fsm1/count2[0]
*2905 fsm1/next_state[2]
*2906 fsm1/next_state[1]
*2907 fsm1/next_state[0]
*2908 count1/tmp_net2
*2909 HFSNET_6
*2910 count1/tmp_net3
*2911 tgen1/tmp_net4
*2912 tgen1/tmp_net5
*2913 count1/tmp_net6
*2914 count1/tmp_net7
*2915 tmp_net8
*2916 tmp_net9
*2917 tmp_net10
*2918 tmp_net11
*2919 tmp_net12
*2920 tmp_net13

*PORTS

*1 I *C 16.096 0.143
*2 I *C 52.569 32.664
*3 I *C 52.569 1.960
*4 I *C 22.328 0.143
*5 I *C 24.456 0.143
*6 I *C 6.216 0.143
*7 I *C 52.569 29.928
*8 I *C 26.584 0.143
*9 I *C 0.143 18.376
*10 O *C 36.312 51.657
*11 O *C 0.143 1.960
*12 O *C 0.143 30.536
*13 O *C 10.320 51.657
*14 O *C 8.344 0.143
*15 O *C 10.472 0.143
*16 O *C 49.688 51.657
*17 O *C 0.143 22.936
*18 O *C 28.712 0.143
*19 O *C 30.840 0.143
*20 O *C 37.376 0.143
*21 O *C 52.569 47.256
*22 O *C 0.143 32.968
*23 O *C 39.504 0.143
*24 O *C 41.632 0.143
*25 O *C 49.080 0.143
*26 O *C 43.760 0.143
*27 O *C 51.208 0.143
*28 O *C 52.569 7.736
*29 O *C 0.143 39.352
*30 O *C 6.368 51.657
*31 O *C 52.569 9.864
*32 O *C 0.143 20.504
*33 O *C 12.600 51.657
*34 O *C 52.569 27.800
*35 O *C 0.143 46.344
*36 O *C 35.096 0.143
*37 O *C 46.192 0.143
*38 O *C 0.143 26.280
*39 O *C 18.224 0.143
*40 O *C 32.968 0.143
*41 O *C 0.143 28.408
*42 O *C 13.968 0.143
*43 I *C 26.356 25.900
*44 I *C 26.356 25.900

*D_NET *2550 1.351595 //LENGTH 16.477 LUMPCC 0 DR

*CONN
*I *499:Y O *L 0 *C 47.560 37.376
*I *170:A4 I *L 0.514778 *C 45.773 39.200
*I *494:A2 I *L 0.509119 *C 45.614 42.416
*I *493:A3 I *L 0.548175 *C 45.280 46.648
*I *169:A4 I *L 0.514778 *C 46.496 44.368
*I *456:A2 I *L 0.466516 *C 46.952 39.352
*I *431:A2 I *L 0.466516 *C 47.104 40.872
*N *2550:7 *C 47.104 40.871
*N *2550:8 *C 46.952 39.366
*N *2550:9 *C 46.952 39.656
*N *2550:10 *C 46.496 44.355
*N *2550:11 *C 45.280 46.635
*N *2550:12 *C 45.280 44.230
*N *2550:13 *C 45.294 44.216
*N *2550:14 *C 46.483 44.216
*N *2550:15 *C 46.496 44.215
*N *2550:16 *C 46.496 42.392
*N *2550:17 *C 45.873 42.392
*N *2550:18 *C 45.888 42.392
*N *2550:19 *C 45.876 39.200
*N *2550:20 *C 45.888 39.214
*N *2550:21 *C 45.888 39.656
*N *2550:22 *C 45.902 39.656
*N *2550:23 *C 47.091 39.656
*N *2550:24 *C 47.104 39.669
*N *2550:25 *C 47.560 39.656
*N *2550:26 *C 47.560 37.390

*CAP
0 *499:Y 0.001
1 *170:A4 0.0139875
2 *494:A2 0.0192157
3 *493:A3 0.001
4 *169:A4 0.001
5 *456:A2 0.001
6 *431:A2 0.001
7 *2550:7 0.04662072
8 *2550:8 0.0149532
9 *2550:9 0.0237145
10 *2550:10 0.01003256
11 *2550:11 0.1254018
12 *2550:12 0.1265453
13 *2550:13 0.04605039
14 *2550:14 0.04605039
15 *2550:15 0.09954987
16 *2550:16 0.111637
17 *2550:17 0.01762158
18 *2550:18 0.1399922
19 *2550:19 0.01239337
20 *2550:20 0.0228801
21 *2550:21 0.1410183
22 *2550:22 0.04525654
23 *2550:23 0.04525654
24 *2550:24 0.06916983
25 *2550:25 0.0939349
26 *2550:26 0.07531265

*RES
0 *499:Y *2550:26 1
1 *2550:26 *2550:25 4.047322
2 *2550:7 *431:A2 1
3 *2550:8 *456:A2 1
4 *2550:10 *169:A4 1
5 *2550:24 *2550:23 0.5
6 *2550:24 *2550:9 0.2714286
7 *2550:24 *2550:7 2.145536
8 *2550:23 *2550:22 2.123214
9 *2550:21 *2550:20 0.7901786
10 *2550:21 *2550:18 4.885715
11 *2550:22 *2550:21 0.5
12 *2550:19 *170:A4 0.1716667
13 *2550:20 *2550:19 1
14 *2550:17 *494:A2 0.5180001
15 *2550:18 *2550:17 1
16 *2550:18 *2550:16 1.085714
17 *2550:15 *2550:14 0.5
18 *2550:15 *2550:10 0.2341667
19 *2550:14 *2550:13 2.123214
20 *2550:12 *2550:11 4.294643
21 *2550:13 *2550:12 0.5
22 *2550:11 *493:A3 1
23 *2550:16 *2550:15 3.255357
24 *2550:9 *2550:8 0.5187501
25 *2550:25 *2550:24 0.8142858

*END

*D_NET *4 2.26671 //LENGTH 24.881 LUMPCC 0 DR

*CONN
*P *4 I *L 0 *C 22.328 0.273
*I *386:A2 I *L 0.501039 *C 20.048 12.296
*I *465:A2 I *L 0.466516 *C 23.544 20.808
*N *4:3 *C 23.544 20.676
*N *4:4 *C 23.544 20.796
*N *4:5 *C 23.530 20.808
*N *4:6 *C 22.494 20.808
*N *4:7 *C 22.480 20.794
*N *4:8 *C 22.480 12.296
*N *4:9 *C 20.048 12.114
*N *4:10 *C 20.048 12.284
*N *4:11 *C 20.062 12.296
*N *4:12 *C 22.315 12.296
*N *4:13 *C 22.328 12.296

*CAP
0 *4 0.4627523
1 *386:A2 0.001
2 *465:A2 0.001
3 *4:3 0.01615788
4 *4:4 0.0101066
5 *4:5 0.05472039
6 *4:6 0.05620291
7 *4:7 0.4715373
8 *4:8 0.480821
9 *4:9 0.01407974
10 *4:10 0.00937814
11 *4:11 0.1102381
12 *4:12 0.1102381
13 *4:13 0.4684778

*RES
0 *4 *4:13 21.46964
1 *4:7 *4:6 0.5
2 *4:6 *4:5 1.851786
3 *4:4 *465:A2 1
4 *4:4 *4:3 0.1991667
5 *4:5 *4:4 0.5
6 *4:13 *4:12 0.5
7 *4:13 *4:8 0.2714286
8 *4:12 *4:11 4.023214
9 *4:10 *386:A2 1
10 *4:10 *4:9 0.2825001
11 *4:11 *4:10 0.5
12 *4:8 *4:7 15.17589

*END

*D_NET *10 0.4449598 //LENGTH 6.694 LUMPCC 0 DR

*CONN
*I *135:Y O *L 0 *C 35.248 46.192
*P *10 O *L 0.05 *C 36.312 51.542
*N *10:2 *C 36.312 46.358
*N *10:3 *C 36.299 46.344
*N *10:4 *C 35.262 46.344
*N *10:5 *C 35.248 46.332
*N *10:6 *C 35.248 46.192

*CAP
0 *135:Y 0.001
1 *10 0.1836297
2 *10:2 0.1818507
3 *10:3 0.03183179
4 *10:4 0.03183179
5 *10:5 0.007979679
6 *10:6 0.006836148

*RES
0 *135:Y *10:6 1
1 *10:6 *10:5 0.2325
2 *10:5 *10:4 0.5
3 *10:4 *10:3 1.851786
4 *10:2 *10 9.258036
5 *10:3 *10:2 0.5

*END

*D_NET *11 0.5708268 //LENGTH 9.579 LUMPCC 0 DR

*CONN
*I *134:Y O *L 0 *C 5.152 6.064
*P *11 O *L 0.05 *C 0.258 1.960
*N *11:2 *C 5.291 1.960
*N *11:3 *C 5.304 1.974
*N *11:4 *C 5.304 5.912
*N *11:5 *C 5.152 5.912
*N *11:6 *C 5.152 6.051

*CAP
0 *134:Y 0.001
1 *11 0.1349748
2 *11:2 0.1331958
3 *11:3 0.1340308
4 *11:4 0.1423569
5 *11:5 0.01736903
6 *11:6 0.007899477

*RES
0 *134:Y *11:6 1
1 *11:6 *11:5 0.2473214
2 *11:3 *11:2 0.5
3 *11:2 *11 8.986609
4 *11:5 *11:4 0.2714286
5 *11:4 *11:3 7.033036

*END

*D_NET *14 2.318567 //LENGTH 35.562 LUMPCC 0 DR

*CONN
*I *53:Y O *L 0 *C 30.373 11.232
*P *14 O *L 0.05 *C 8.344 0.258
*I *54:A I *L 0.582888 *C 28.712 12.600
*N *14:3 *C 28.530 12.600
*N *14:4 *C 28.712 12.418
*N *14:5 *C 28.712 12.588
*N *14:6 *C 28.700 12.600
*N *14:7 *C 28.712 12.587
*N *14:8 *C 8.344 1.643
*N *14:9 *C 8.357 1.656
*N *14:10 *C 28.699 1.656
*N *14:11 *C 28.712 1.669
*N *14:12 *C 28.712 11.384
*N *14:13 *C 28.726 11.384
*N *14:14 *C 30.219 11.384
*N *14:15 *C 30.232 11.372
*N *14:16 *C 30.232 11.232
*N *14:17 *C 30.245 11.232

*CAP
0 *53:Y 0.01422909
1 *14 0.04476194
2 *54:A 0.001
3 *14:3 0.01177147
4 *14:4 0.01335396
5 *14:5 0.008652359
6 *14:6 0.008213509
7 *14:7 0.03948933
8 *14:8 0.04298291
9 *14:9 0.6451814
10 *14:10 0.6451815
11 *14:11 0.3073102
12 *14:12 0.3485785
13 *14:13 0.07193552
14 *14:14 0.07193542
15 *14:15 0.01558482
16 *14:16 0.01576972
17 *14:17 0.01263496

*RES
0 *53:Y *14:17 0.215
1 *14:13 *14:12 0.5
2 *14:12 *14:11 17.34732
3 *14:12 *14:7 2.147322
4 *14:15 *14:14 0.5
5 *14:14 *14:13 2.666071
6 *14:17 *14:16 1
7 *14:16 *14:15 0.2325
8 *14:6 *14:5 0.5
9 *14:6 *14:3 0.2825
10 *14:7 *14:6 0.5
11 *14:5 *54:A 1
12 *14:5 *14:4 0.2825
13 *14:10 *14:9 36.32322
14 *14:11 *14:10 0.5
15 *14:8 *14 2.472321
16 *14:9 *14:8 0.5

*END

*D_NET *20 0.4455684 //LENGTH 6.993 LUMPCC 0 DR

*CONN
*I *129:Y O *L 0 *C 36.464 6.064
*P *20 O *L 0.05 *C 37.376 0.258
*N *20:2 *C 37.376 4.987
*N *20:3 *C 37.363 5.000
*N *20:4 *C 36.477 5.000
*N *20:5 *C 36.464 5.014
*N *20:6 *C 36.464 6.051

*CAP
0 *129:Y 0.001
1 *20 0.1498376
2 *20:2 0.1480585
3 *20:3 0.02981339
4 *20:4 0.02981339
5 *20:5 0.04409456
6 *20:6 0.04295102

*RES
0 *129:Y *20:6 1
1 *20:6 *20:5 1.851786
2 *20:5 *20:4 0.5
3 *20:4 *20:3 1.580357
4 *20:2 *20 8.44375
5 *20:3 *20:2 0.5

*END

*D_NET *26 0.5287919 //LENGTH 7.910 LUMPCC 0 DR

*CONN
*I *127:Y O *L 0 *C 45.584 6.064
*P *26 O *L 0.05 *C 43.760 0.258
*N *26:2 *C 43.760 5.899
*N *26:3 *C 43.774 5.912
*N *26:4 *C 45.571 5.912
*N *26:5 *C 45.584 5.912
*N *26:6 *C 45.584 6.051

*CAP
0 *127:Y 0.001
1 *26 0.1901318
2 *26:2 0.1883528
3 *26:3 0.06734043
4 *26:4 0.06734043
5 *26:5 0.007884996
6 *26:6 0.006741465

*RES
0 *127:Y *26:6 1
1 *26:6 *26:5 0.2325
2 *26:5 *26:4 0.5
3 *26:4 *26:3 3.208929
4 *26:2 *26 10.07232
5 *26:3 *26:2 0.5

*END

*D_NET *29 0.5329158 //LENGTH 8.555 LUMPCC 0 DR

*CONN
*I *124:Y O *L 0 *C 5.152 42.848
*P *29 O *L 0.05 *C 0.258 39.352
*N *29:2 *C 5.139 39.352
*N *29:3 *C 5.152 39.366
*N *29:4 *C 5.152 42.835

*CAP
0 *124:Y 0.001
1 *29 0.136398
2 *29:2 0.134619
3 *29:3 0.1310211
4 *29:4 0.1298776

*RES
0 *124:Y *29:4 1
1 *29:4 *29:3 6.194643
2 *29:3 *29:2 0.5
3 *29:2 *29 8.715179

*END

*D_NET *32 2.204377 //LENGTH 34.139 LUMPCC 0 DR

*CONN
*I *64:Y O *L 0 *C 10.472 43.912
*P *32 O *L 0.05 *C 0.258 20.504
*N *32:2 *C 10.472 43.730
*N *32:3 *C 0.883 20.504
*N *32:4 *C 0.896 20.518
*N *32:5 *C 0.896 43.899
*N *32:6 *C 0.910 43.912
*N *32:7 *C 10.459 43.912
*N *32:8 *C 10.472 43.900

*CAP
0 *64:Y 0.001
1 *32 0.01969489
2 *32:2 0.01052396
3 *32:3 0.01791585
4 *32:4 0.7893104
5 *32:5 0.7893104
6 *32:6 0.2853995
7 *32:7 0.2853995
8 *32:8 0.005822364

*RES
0 *64:Y *32:8 1
1 *32:8 *32:7 0.5
2 *32:8 *32:2 0.2825
3 *32:7 *32:6 17.05179
4 *32:5 *32:4 41.75178
5 *32:6 *32:5 0.5
6 *32:4 *32:3 0.5
7 *32:3 *32 1.115179

*END

*D_NET *35 0.272319 //LENGTH 5.216 LUMPCC 0 DR

*CONN
*I *122:Y O *L 0 *C 5.152 46.192
*P *35 O *L 0.05 *C 0.258 46.344
*N *35:2 *C 5.139 46.344
*N *35:3 *C 5.152 46.332
*N *35:4 *C 5.152 46.192

*CAP
0 *122:Y 0.001
1 *35 0.1301695
2 *35:2 0.1283905
3 *35:3 0.006951253
4 *35:4 0.005807721

*RES
0 *122:Y *35:4 1
1 *35:4 *35:3 0.2325
2 *35:3 *35:2 0.5
3 *35:2 *35 8.715179

*END

*D_NET *39 2.36465 //LENGTH 26.601 LUMPCC 0 DR

*CONN
*I *108:Y O *L 0 *C 18.680 26.128
*P *39 O *L 0.05 *C 18.224 0.258
*N *39:2 *C 18.224 2.251
*N *39:3 *C 18.238 2.264
*N *39:4 *C 18.666 2.264
*N *39:5 *C 18.680 2.278
*N *39:6 *C 18.680 26.114

*CAP
0 *108:Y 0.001
1 *39 0.06689979
2 *39:2 0.06512075
3 *39:3 0.0155655
4 *39:4 0.0155655
5 *39:5 1.100821
6 *39:6 1.099678

*RES
0 *108:Y *39:6 1
1 *39:6 *39:5 42.56607
2 *39:5 *39:4 0.5
3 *39:4 *39:3 0.7660714
4 *39:2 *39 3.558036
5 *39:3 *39:2 0.5

*END

*D_NET *42 2.707683 //LENGTH 33.897 LUMPCC 0 DR

*CONN
*I *105:Y O *L 0 *C 28.408 19.440
*P *42 O *L 0.05 *C 13.968 0.258
*N *42:2 *C 13.968 18.971
*N *42:3 *C 13.982 18.984
*N *42:4 *C 28.395 18.984
*N *42:5 *C 28.408 18.998
*N *42:6 *C 28.408 19.427

*CAP
0 *105:Y 0.001
1 *42 0.8100015
2 *42:2 0.8082225
3 *42:3 0.5263647
4 *42:4 0.5263647
5 *42:5 0.01843663
6 *42:6 0.01729309

*RES
0 *105:Y *42:6 1
1 *42:6 *42:5 0.7660715
2 *42:5 *42:4 0.5
3 *42:4 *42:3 25.7375
4 *42:2 *42 33.41518
5 *42:3 *42:2 0.5

*END

*D_NET *2553 3.697946 //LENGTH 42.667 LUMPCC 0 DR

*CONN
*I *312:Y O *L 0 *C 14.272 32.664
*I *505:A4 I *L 0.552216 *C 27.800 34.488
*I *272:A2 I *L 0.482724 *C 30.384 32.664
*I *278:A3 I *L 0.584801 *C 31.752 35.856
*I *275:A1 I *L 0.666174 *C 34.336 34.336
*I *314:A1 I *L 0.549073 *C 34.184 41.176
*I *319:A3 I *L 0.455637 *C 32.512 41.176
*I *313:A2 I *L 0.482724 *C 31.904 44.216
*I *262:A2 I *L 0.466516 *C 36.464 40.872
*N *2553:9 *C 14.272 32.482
*N *2553:10 *C 36.464 40.873
*N *2553:11 *C 36.464 41.163
*N *2553:12 *C 36.451 41.176
*N *2553:13 *C 31.904 44.203
*N *2553:14 *C 31.904 41.190
*N *2553:15 *C 31.918 41.176
*N *2553:16 *C 32.512 40.994
*N *2553:17 *C 32.512 41.163
*N *2553:18 *C 32.512 41.176
*N *2553:19 *C 34.184 41.176
*N *2553:20 *C 34.184 41.163
*N *2553:21 *C 34.336 34.349
*N *2553:22 *C 34.336 35.096
*N *2553:23 *C 34.184 35.096
*N *2553:24 *C 34.171 35.096
*N *2553:25 *C 31.752 35.843
*N *2553:26 *C 31.752 35.110
*N *2553:27 *C 31.752 35.096
*N *2553:28 *C 30.384 32.678
*N *2553:29 *C 30.384 35.083
*N *2553:30 *C 30.384 35.096
*N *2553:31 *C 27.648 35.096
*N *2553:32 *C 27.800 34.489
*N *2553:33 *C 27.800 34.792
*N *2553:34 *C 27.649 34.792
*N *2553:35 *C 27.648 34.793
*N *2553:36 *C 25.838 34.792
*N *2553:37 *C 25.824 34.779
*N *2553:38 *C 25.824 32.678
*N *2553:39 *C 25.811 32.664
*N *2553:40 *C 14.286 32.664
*N *2553:41 *C 14.272 32.651

*CAP
0 *312:Y 0.001
1 *505:A4 0.001
2 *272:A2 0.001
3 *278:A3 0.001
4 *275:A1 0.001
5 *314:A1 0.001
6 *319:A3 0.001
7 *313:A2 0.001
8 *262:A2 0.001
9 *2553:9 0.01090677
10 *2553:10 0.01376724
11 *2553:11 0.01477793
12 *2553:12 0.08432798
13 *2553:13 0.1153984
14 *2553:14 0.1165419
15 *2553:15 0.0245609
16 *2553:16 0.01557433
17 *2553:17 0.01087273
18 *2553:18 0.09157759
19 *2553:19 0.1498621
20 *2553:20 0.2784575
21 *2553:21 0.04655138
22 *2553:22 0.05677501
23 *2553:23 0.2901637
24 *2553:24 0.1015619
25 *2553:25 0.04536478
26 *2553:26 0.04650831
27 *2553:27 0.1552531
28 *2553:28 0.1305727
29 *2553:29 0.1317163
30 *2553:30 0.1645657
31 *2553:31 0.1239118
32 *2553:32 0.01577436
33 *2553:33 0.02624459
34 *2553:34 0.005768631
35 *2553:35 0.08776214
36 *2553:36 0.07650403
37 *2553:37 0.1135729
38 *2553:38 0.1135729
39 *2553:39 0.5119855
40 *2553:40 0.5119855
41 *2553:41 0.00620517

*RES
0 *312:Y *2553:41 1
1 *2553:11 *2553:10 0.5169643
2 *2553:12 *2553:11 0.5
3 *2553:10 *262:A2 1
4 *2553:21 *275:A1 1
5 *2553:20 *314:A1 1
6 *2553:20 *2553:19 0.5
7 *2553:19 *2553:18 2.985714
8 *2553:19 *2553:12 4.047322
9 *2553:17 *319:A3 1
10 *2553:17 *2553:16 0.2825
11 *2553:18 *2553:17 0.5
12 *2553:18 *2553:15 1.061607
13 *2553:14 *2553:13 5.380357
14 *2553:15 *2553:14 0.5
15 *2553:13 *313:A2 1
16 *2553:23 *2553:22 0.2714286
17 *2553:23 *2553:20 10.83304
18 *2553:24 *2553:23 0.5
19 *2553:26 *2553:25 1.308929
20 *2553:27 *2553:26 0.5
21 *2553:27 *2553:24 4.31875
22 *2553:25 *278:A3 1
23 *2553:29 *2553:28 4.294643
24 *2553:30 *2553:29 0.5
25 *2553:30 *2553:27 2.442857
26 *2553:28 *272:A2 1
27 *2553:34 *2553:33 0.2696429
28 *2553:35 *2553:34 0.5
29 *2553:35 *2553:31 0.5410715
30 *2553:32 *505:A4 1
31 *2553:37 *2553:36 0.5
32 *2553:36 *2553:35 3.233036
33 *2553:38 *2553:37 3.751786
34 *2553:39 *2553:38 0.5
35 *2553:41 *2553:40 0.5
36 *2553:41 *2553:9 0.2825
37 *2553:40 *2553:39 20.58036
38 *2553:33 *2553:32 0.5410715
39 *2553:22 *2553:21 1.333036
40 *2553:31 *2553:30 4.885715

*END

*D_NET *2557 0.9623705 //LENGTH 13.114 LUMPCC 0 DR

*CONN
*I *425:Y O *L 0 *C 39.778 30.855
*I *45:A2 I *L 0.695384 *C 31.294 27.344
*I *46:A1 I *L 0.604822 *C 33.576 27.648
*N *2557:3 *C 39.352 30.658
*N *2557:4 *C 33.576 27.661
*N *2557:5 *C 31.296 27.370
*N *2557:6 *C 31.296 27.787
*N *2557:7 *C 31.309 27.800
*N *2557:8 *C 33.562 27.800
*N *2557:9 *C 33.576 27.814
*N *2557:10 *C 33.576 28.864
*N *2557:11 *C 34.336 28.864
*N *2557:12 *C 34.336 30.827
*N *2557:13 *C 34.349 30.840
*N *2557:14 *C 39.339 30.840
*N *2557:15 *C 39.352 30.828
*N *2557:16 *C 39.367 30.840

*CAP
0 *425:Y 0.02099836
1 *45:A2 0.001
2 *46:A1 0.001
3 *2557:3 0.0120013
4 *2557:4 0.009402906
5 *2557:5 0.02280778
6 *2557:6 0.02461553
7 *2557:7 0.08719853
8 *2557:8 0.08719853
9 *2557:9 0.0646408
10 *2557:10 0.08226848
11 *2557:11 0.1151226
12 *2557:12 0.08516947
13 *2557:13 0.1604569
14 *2557:14 0.1604569
15 *2557:15 0.008628141
16 *2557:16 0.01940423

*RES
0 *425:Y *2557:16 0.8220001
1 *2557:12 *2557:11 3.504464
2 *2557:13 *2557:12 0.5
3 *2557:15 *2557:14 0.5
4 *2557:15 *2557:3 0.2825
5 *2557:14 *2557:13 8.908929
6 *2557:16 *2557:15 1
7 *2557:4 *46:A1 1
8 *2557:9 *2557:8 0.5
9 *2557:9 *2557:4 0.255
10 *2557:8 *2557:7 4.023215
11 *2557:6 *2557:5 0.74375
12 *2557:7 *2557:6 0.5
13 *2557:5 *45:A2 0.5
14 *2557:10 *2557:9 1.875893
15 *2557:11 *2557:10 1.357143

*END

*D_NET *2559 0.6532064 //LENGTH 6.273 LUMPCC 0 DR

*CONN
*I *119:Y O *L 0 *C 37.944 26.154
*I *46:A2 I *L 0.61189 *C 33.424 27.496
*N *2559:2 *C 33.424 27.483
*N *2559:3 *C 33.424 27.206
*N *2559:4 *C 33.438 27.192
*N *2559:5 *C 37.819 27.192
*N *2559:6 *C 37.832 27.178
*N *2559:7 *C 37.832 26.142
*N *2559:8 *C 37.845 26.128

*CAP
0 *119:Y 0.01040071
1 *46:A2 0.001
2 *2559:2 0.02164995
3 *2559:3 0.02279348
4 *2559:4 0.2512358
5 *2559:5 0.2512358
6 *2559:6 0.04294959
7 *2559:7 0.0431345
8 *2559:8 0.008806582

*RES
0 *119:Y *2559:8 0.1658334
1 *2559:2 *46:A2 1
2 *2559:3 *2559:2 0.4946429
3 *2559:4 *2559:3 0.5
4 *2559:6 *2559:5 0.5
5 *2559:5 *2559:4 7.823215
6 *2559:8 *2559:7 1
7 *2559:7 *2559:6 1.851786

*END

*D_NET *2561 0.3822715 //LENGTH 3.465 LUMPCC 0 DR

*CONN
*I *72:Y O *L 0 *C 32.816 20.656
*I *73:A1 I *L 0.494827 *C 33.272 20.808
*I *86:A4 I *L 0.514778 *C 33.880 19.136
*N *2561:3 *C 33.880 19.149
*N *2561:4 *C 33.880 20.794
*N *2561:5 *C 33.867 20.808
*N *2561:6 *C 33.272 20.626
*N *2561:7 *C 33.272 20.796
*N *2561:8 *C 33.272 20.808
*N *2561:9 *C 32.830 20.808
*N *2561:10 *C 32.816 20.796
*N *2561:11 *C 32.816 20.656

*CAP
0 *72:Y 0.001
1 *73:A1 0.001
2 *86:A4 0.001
3 *2561:3 0.09796067
4 *2561:4 0.0991042
5 *2561:5 0.03432934
6 *2561:6 0.01640183
7 *2561:7 0.01170023
8 *2561:8 0.06307882
9 *2561:9 0.02697045
10 *2561:10 0.01543476
11 *2561:11 0.01429123

*RES
0 *72:Y *2561:11 1
1 *2561:4 *2561:3 2.9375
2 *2561:5 *2561:4 0.5
3 *2561:3 *86:A4 1
4 *2561:7 *73:A1 1
5 *2561:7 *2561:6 0.2825
6 *2561:8 *2561:7 0.5
7 *2561:8 *2561:5 1.061607
8 *2561:10 *2561:9 0.5
9 *2561:9 *2561:8 0.7901786
10 *2561:11 *2561:10 0.2325

*END

*D_NET *2563 1.358908 //LENGTH 13.275 LUMPCC 0 DR

*CONN
*I *77:Y O *L 0 *C 36.738 8.800
*I *80:A1 I *L 0.529859 *C 32.816 17.768
*N *2563:2 *C 32.816 17.755
*N *2563:3 *C 32.816 10.790
*N *2563:4 *C 32.830 10.776
*N *2563:5 *C 36.451 10.776
*N *2563:6 *C 36.464 10.763
*N *2563:7 *C 36.464 8.814
*N *2563:8 *C 36.479 8.800

*CAP
0 *77:Y 0.01467003
1 *80:A1 0.001
2 *2563:2 0.401067
3 *2563:3 0.4022106
4 *2563:4 0.1543559
5 *2563:5 0.1543559
6 *2563:6 0.108994
7 *2563:7 0.109179
8 *2563:8 0.0130759

*RES
0 *77:Y *2563:8 0.5180001
1 *2563:2 *80:A1 1
2 *2563:3 *2563:2 12.4375
3 *2563:4 *2563:3 0.5
4 *2563:6 *2563:5 0.5
5 *2563:5 *2563:4 6.466072
6 *2563:8 *2563:7 1
7 *2563:7 *2563:6 3.480357

*END

*D_NET *2567 0.3801676 //LENGTH 4.028 LUMPCC 0 DR

*CONN
*I *83:Y O *L 0 *C 44.672 7.280
*I *84:A3 I *L 0.557478 *C 45.736 6.824
*I *85:A3 I *L 0.539281 *C 45.432 8.952
*N *2567:3 *C 45.446 8.952
*N *2567:4 *C 45.584 8.952
*N *2567:5 *C 45.736 6.838
*N *2567:6 *C 45.736 7.128
*N *2567:7 *C 45.584 7.128
*N *2567:8 *C 45.571 7.128
*N *2567:9 *C 44.686 7.128
*N *2567:10 *C 44.672 7.128
*N *2567:11 *C 44.672 7.268

*CAP
0 *83:Y 0.001
1 *84:A3 0.001
2 *85:A3 0.001
3 *2567:3 0.005525801
4 *2567:4 0.1192334
5 *2567:5 0.01927485
6 *2567:6 0.02941729
7 *2567:7 0.1162258
8 *2567:8 0.03467099
9 *2567:9 0.03467099
10 *2567:10 0.009646028
11 *2567:11 0.008502496

*RES
0 *83:Y *2567:11 1
1 *2567:5 *84:A3 1
2 *2567:3 *85:A3 1
3 *2567:7 *2567:6 0.2714286
4 *2567:7 *2567:4 3.257143
5 *2567:8 *2567:7 0.5
6 *2567:10 *2567:9 0.5
7 *2567:9 *2567:8 1.580357
8 *2567:11 *2567:10 0.2325
9 *2567:4 *2567:3 0.2473214
10 *2567:6 *2567:5 0.51875

*END

*D_NET *2571 1.366348 //LENGTH 19.066 LUMPCC 0 DR

*CONN
*I *162:Y O *L 0 *C 17.008 29.472
*I *371:CLK I *L 0.694632 *C 18.376 31.904
*I *363:CLK I *L 0.694632 *C 18.224 35.248
*I *362:CLK I *L 0.694632 *C 19.136 38.288
*I *242:CLK I *L 0.695415 *C 20.048 41.632
*I *360:CLK I *L 0.694632 *C 17.464 38.592
*N *2571:6 *C 17.464 38.580
*N *2571:7 *C 17.464 38.440
*N *2571:8 *C 17.477 38.440
*N *2571:9 *C 18.072 38.440
*N *2571:10 *C 20.048 41.632
*N *2571:11 *C 20.048 41.480
*N *2571:12 *C 20.048 41.480
*N *2571:13 *C 20.188 41.480
*N *2571:14 *C 20.200 41.467
*N *2571:15 *C 20.200 38.150
*N *2571:16 *C 20.187 38.136
*N *2571:17 *C 19.136 38.276
*N *2571:18 *C 19.136 38.136
*N *2571:19 *C 19.136 38.136
*N *2571:20 *C 18.072 38.136
*N *2571:21 *C 18.072 38.123
*N *2571:22 *C 18.224 35.236
*N *2571:23 *C 18.224 35.096
*N *2571:24 *C 18.212 35.096
*N *2571:25 *C 18.072 35.096
*N *2571:26 *C 18.072 35.096
*N *2571:27 *C 18.376 31.892
*N *2571:28 *C 18.376 31.752
*N *2571:29 *C 18.363 31.752
*N *2571:30 *C 18.085 31.752
*N *2571:31 *C 18.072 31.752
*N *2571:32 *C 18.072 29.638
*N *2571:33 *C 18.059 29.624
*N *2571:34 *C 17.021 29.624
*N *2571:35 *C 17.008 29.612
*N *2571:36 *C 17.008 29.472

*CAP
0 *162:Y 0.001
1 *371:CLK 0.001
2 *363:CLK 0.001
3 *362:CLK 0.001
4 *242:CLK 0.001
5 *360:CLK 0.001
6 *2571:6 0.007588174
7 *2571:7 0.008731705
8 *2571:8 0.02598541
9 *2571:9 0.03946358
10 *2571:10 0.01089021
11 *2571:11 0.01203374
12 *2571:12 0.01055808
13 *2571:13 0.01055819
14 *2571:14 0.1303208
15 *2571:15 0.1303208
16 *2571:16 0.04003489
17 *2571:17 0.01635164
18 *2571:18 0.01749517
19 *2571:19 0.07982293
20 *2571:20 0.04970834
21 *2571:21 0.09757698
22 *2571:22 0.01294051
23 *2571:23 0.01408404
24 *2571:24 0.009286641
25 *2571:25 0.009286743
26 *2571:26 0.211377
27 *2571:27 0.01263067
28 *2571:28 0.0137742
29 *2571:29 0.01427475
30 *2571:30 0.01427485
31 *2571:31 0.1822871
32 *2571:32 0.06848702
33 *2571:33 0.04712112
34 *2571:34 0.04712101
35 *2571:35 0.008552545
36 *2571:36 0.007409013

*RES
0 *162:Y *2571:36 1
1 *2571:16 *2571:15 0.5
2 *2571:15 *2571:14 5.923214
3 *2571:13 *2571:12 0.2325
4 *2571:14 *2571:13 0.5
5 *2571:11 *2571:10 0.2533334
6 *2571:12 *2571:11 0.5
7 *2571:10 *242:CLK 1
8 *2571:18 *2571:17 0.2325
9 *2571:19 *2571:18 0.5
10 *2571:19 *2571:16 1.875893
11 *2571:17 *362:CLK 1
12 *2571:20 *2571:19 1.9
13 *2571:20 *2571:9 0.5428572
14 *2571:21 *2571:20 0.5
15 *2571:30 *2571:29 0.4946429
16 *2571:31 *2571:30 0.5
17 *2571:31 *2571:26 5.971429
18 *2571:28 *2571:27 0.2325
19 *2571:29 *2571:28 0.5
20 *2571:27 *371:CLK 1
21 *2571:25 *2571:24 0.2325
22 *2571:26 *2571:25 0.5
23 *2571:26 *2571:21 5.404465
24 *2571:23 *2571:22 0.2325
25 *2571:24 *2571:23 0.5
26 *2571:22 *363:CLK 1
27 *2571:7 *2571:6 0.2325
28 *2571:8 *2571:7 0.5
29 *2571:6 *360:CLK 1
30 *2571:33 *2571:32 0.5
31 *2571:32 *2571:31 3.775893
32 *2571:35 *2571:34 0.5
33 *2571:34 *2571:33 1.851786
34 *2571:36 *2571:35 0.2325
35 *2571:9 *2571:8 1.061607

*END

*D_NET *2578 0.2417185 //LENGTH 2.914 LUMPCC 0 DR

*CONN
*I *98:Y O *L 0 *C 23.240 31.448
*I *99:A5 I *L 0.542358 *C 24.456 30.688
*N *2578:2 *C 24.456 30.702
*N *2578:3 *C 24.456 31.739
*N *2578:4 *C 24.443 31.752
*N *2578:5 *C 23.254 31.752
*N *2578:6 *C 23.240 31.739
*N *2578:7 *C 23.240 31.462

*CAP
0 *98:Y 0.001
1 *99:A5 0.001
2 *2578:2 0.04866945
3 *2578:3 0.04981298
4 *2578:4 0.05723954
5 *2578:5 0.05723954
6 *2578:6 0.01395024
7 *2578:7 0.01280671

*RES
0 *98:Y *2578:7 1
1 *2578:2 *99:A5 1
2 *2578:3 *2578:2 1.851786
3 *2578:4 *2578:3 0.5
4 *2578:6 *2578:5 0.5
5 *2578:5 *2578:4 2.123214
6 *2578:7 *2578:6 0.4946429

*END

*D_NET *2580 0.6439905 //LENGTH 6.373 LUMPCC 0 DR

*CONN
*I *96:Y O *L 0 *C 22.287 32.812
*I *99:A1 I *L 0.484201 *C 25.109 30.840
*I *98:A1 I *L 0.494827 *C 22.099 30.840
*N *2580:3 *C 22.313 30.840
*N *2580:4 *C 22.328 30.854
*N *2580:5 *C 22.328 31.144
*N *2580:6 *C 25.064 30.658
*N *2580:7 *C 25.064 30.840
*N *2580:8 *C 25.064 30.828
*N *2580:9 *C 25.050 30.840
*N *2580:10 *C 24.912 30.840
*N *2580:11 *C 24.912 31.144
*N *2580:12 *C 22.494 31.144
*N *2580:13 *C 22.480 31.158
*N *2580:14 *C 22.480 32.803
*N *2580:15 *C 22.468 32.816

*CAP
0 *96:Y 0.01489708
1 *99:A1 0.01036202
2 *98:A1 0.01550854
3 *2580:3 0.01391441
4 *2580:4 0.02445971
5 *2580:5 0.03346527
6 *2580:6 0.01787136
7 *2580:7 0.008767889
8 *2580:8 0.0144982
9 *2580:9 0.00893749
10 *2580:10 0.02216742
11 *2580:11 0.1230564
12 *2580:12 0.1098264
13 *2580:13 0.1100909
14 *2580:14 0.1028644
15 *2580:15 0.01330295

*RES
0 *96:Y *2580:15 0.3008333
1 *2580:13 *2580:12 0.5
2 *2580:13 *2580:5 0.2714286
3 *2580:12 *2580:11 4.31875
4 *2580:8 *2580:7 1
5 *2580:8 *2580:6 0.2825
6 *2580:9 *2580:8 0.5
7 *2580:7 *99:A1 0.09166667
8 *2580:15 *2580:14 1
9 *2580:14 *2580:13 2.9375
10 *2580:3 *98:A1 0.428
11 *2580:4 *2580:3 1
12 *2580:5 *2580:4 0.5187501
13 *2580:11 *2580:10 0.5428572
14 *2580:10 *2580:9 0.2473214

*END

*D_NET *2584 0.2628686 //LENGTH 3.046 LUMPCC 0 DR

*CONN
*I *103:Y O *L 0 *C 23.240 33.883
*I *79:A2 I *L 0.45541 *C 25.520 34.184
*N *2584:2 *C 25.520 34.002
*N *2584:3 *C 25.520 34.172
*N *2584:4 *C 25.507 34.184
*N *2584:5 *C 23.254 34.184
*N *2584:6 *C 23.240 34.171
*N *2584:7 *C 23.240 33.894

*CAP
0 *103:Y 0.001
1 *79:A2 0.001
2 *2584:2 0.01535481
3 *2584:3 0.01065321
4 *2584:4 0.1035956
5 *2584:5 0.1035956
6 *2584:6 0.01438629
7 *2584:7 0.01328307

*RES
0 *103:Y *2584:7 1
1 *2584:3 *79:A2 1
2 *2584:3 *2584:2 0.2825
3 *2584:4 *2584:3 0.5
4 *2584:6 *2584:5 0.5
5 *2584:5 *2584:4 4.023215
6 *2584:7 *2584:6 0.4946429

*END

*D_NET *2587 1.813087 //LENGTH 21.154 LUMPCC 0 DR

*CONN
*I *91:Y O *L 0 *C 16.552 46.341
*I *79:A4 I *L 0.443333 *C 25.216 34.184
*N *2587:2 *C 25.216 34.198
*N *2587:3 *C 25.216 39.339
*N *2587:4 *C 25.203 39.352
*N *2587:5 *C 16.566 39.352
*N *2587:6 *C 16.552 39.366
*N *2587:7 *C 16.552 46.331

*CAP
0 *91:Y 0.001
1 *79:A4 0.001
2 *2587:2 0.2539011
3 *2587:3 0.2550446
4 *2587:4 0.351788
5 *2587:5 0.351788
6 *2587:6 0.2998345
7 *2587:7 0.2987313

*RES
0 *91:Y *2587:7 1
1 *2587:2 *79:A4 1
2 *2587:3 *2587:2 9.180358
3 *2587:4 *2587:3 0.5
4 *2587:6 *2587:5 0.5
5 *2587:5 *2587:4 15.42321
6 *2587:7 *2587:6 12.4375

*END

*D_NET *2590 2.523634 //LENGTH 24.381 LUMPCC 0 DR

*CONN
*I *168:Y O *L 0 *C 35.248 26.128
*I *57:A1 I *L 0.496377 *C 34.336 22.480
*I *115:A1 I *L 0.514394 *C 31.936 20.960
*I *55:A1 I *L 0.514394 *C 31.144 15.792
*I *53:A1 I *L 0.514394 *C 31.752 10.928
*N *2590:5 *C 31.752 10.942
*N *2590:6 *C 31.144 15.779
*N *2590:7 *C 31.144 12.309
*N *2590:8 *C 31.158 12.296
*N *2590:9 *C 31.739 12.296
*N *2590:10 *C 31.752 12.296
*N *2590:11 *C 31.752 13.512
*N *2590:12 *C 31.904 13.512
*N *2590:13 *C 31.904 20.187
*N *2590:14 *C 31.918 20.200
*N *2590:15 *C 32.346 20.200
*N *2590:16 *C 32.360 20.213
*N *2590:17 *C 32.345 20.960
*N *2590:18 *C 32.360 20.960
*N *2590:19 *C 32.360 21.402
*N *2590:20 *C 32.373 21.416
*N *2590:21 *C 34.323 21.416
*N *2590:22 *C 34.336 21.430
*N *2590:23 *C 34.336 22.480
*N *2590:24 *C 34.336 22.922
*N *2590:25 *C 34.349 22.936
*N *2590:26 *C 35.235 22.936
*N *2590:27 *C 35.248 22.950
*N *2590:28 *C 35.248 26.114

*CAP
0 *168:Y 0.001
1 *57:A1 0.001
2 *115:A1 0.02739459
3 *55:A1 0.001
4 *53:A1 0.001
5 *2590:5 0.08743793
6 *2590:6 0.1856494
7 *2590:7 0.1867929
8 *2590:8 0.02926492
9 *2590:9 0.02926492
10 *2590:10 0.1609385
11 *2590:11 0.07938836
12 *2590:12 0.4163701
13 *2590:13 0.4075598
14 *2590:14 0.02305942
15 *2590:15 0.02305942
16 *2590:16 0.03976183
17 *2590:17 0.02580047
18 *2590:18 0.06983367
19 *2590:19 0.0281079
20 *2590:20 0.08599179
21 *2590:21 0.08599179
22 *2590:22 0.05941727
23 *2590:23 0.08366436
24 *2590:24 0.02361159
25 *2590:25 0.03863581
26 *2590:26 0.03863581
27 *2590:27 0.1425723
28 *2590:28 0.1414288

*RES
0 *168:Y *2590:28 1
1 *2590:24 *2590:23 0.7901787
2 *2590:25 *2590:24 0.5
3 *2590:27 *2590:26 0.5
4 *2590:26 *2590:25 1.580357
5 *2590:28 *2590:27 5.651786
6 *2590:23 *57:A1 1
7 *2590:23 *2590:22 1.875893
8 *2590:22 *2590:21 0.5
9 *2590:21 *2590:20 3.480357
10 *2590:19 *2590:18 0.7901786
11 *2590:20 *2590:19 0.5
12 *2590:17 *115:A1 0.8180001
13 *2590:18 *2590:17 1
14 *2590:18 *2590:16 1.333036
15 *2590:16 *2590:15 0.5
16 *2590:15 *2590:14 0.7660715
17 *2590:13 *2590:12 11.91875
18 *2590:14 *2590:13 0.5
19 *2590:5 *53:A1 1
20 *2590:10 *2590:9 0.5
21 *2590:10 *2590:5 2.41875
22 *2590:9 *2590:8 1.0375
23 *2590:7 *2590:6 6.194643
24 *2590:8 *2590:7 0.5
25 *2590:6 *55:A1 1
26 *2590:11 *2590:10 2.171429
27 *2590:12 *2590:11 0.2714286

*END

*D_NET *2591 0.8729835 //LENGTH 8.269 LUMPCC 0 DR

*CONN
*I *106:Y O *L 0 *C 22.632 33.576
*I *107:A5 I *L 0.542358 *C 21.416 27.344
*N *2591:2 *C 22.784 33.394
*N *2591:3 *C 21.416 27.358
*N *2591:4 *C 21.416 33.562
*N *2591:5 *C 21.430 33.576
*N *2591:6 *C 22.771 33.576
*N *2591:7 *C 22.784 33.564
*N *2591:8 *C 22.769 33.576

*CAP
0 *106:Y 0.01360882
1 *107:A5 0.001
2 *2591:2 0.01553606
3 *2591:3 0.3473332
4 *2591:4 0.3484767
5 *2591:5 0.06142553
6 *2591:6 0.06142553
7 *2591:7 0.01216289
8 *2591:8 0.0120147

*RES
0 *106:Y *2591:8 0.2740001
1 *2591:3 *107:A5 1
2 *2591:4 *2591:3 11.08036
3 *2591:5 *2591:4 0.5
4 *2591:7 *2591:6 0.5
5 *2591:7 *2591:2 0.2825
6 *2591:6 *2591:5 2.394643
7 *2591:8 *2591:7 1

*END

*D_NET *2592 0.5789785 //LENGTH 6.604 LUMPCC 0 DR

*CONN
*I *51:Y O *L 0 *C 23.684 28.864
*I *107:A4 I *L 0.514778 *C 21.872 27.648
*I *52:A3 I *L 0.474994 *C 23.544 25.824
*N *2592:3 *C 23.544 25.838
*N *2592:4 *C 21.872 27.635
*N *2592:5 *C 21.872 26.294
*N *2592:6 *C 21.886 26.280
*N *2592:7 *C 23.530 26.280
*N *2592:8 *C 23.544 26.280
*N *2592:9 *C 23.544 28.851
*N *2592:10 *C 23.556 28.864

*CAP
0 *51:Y 0.01117964
1 *107:A4 0.001
2 *52:A3 0.001
3 *2592:3 0.01855074
4 *2592:4 0.08510876
5 *2592:5 0.08625229
6 *2592:6 0.06594156
7 *2592:7 0.06594156
8 *2592:8 0.1278534
9 *2592:9 0.106565
10 *2592:10 0.009585511

*RES
0 *51:Y *2592:10 0.2116667
1 *2592:10 *2592:9 1
2 *2592:9 *2592:8 4.590178
3 *2592:3 *52:A3 1
4 *2592:8 *2592:7 0.5
5 *2592:8 *2592:3 0.7901786
6 *2592:7 *2592:6 2.9375
7 *2592:5 *2592:4 2.394643
8 *2592:6 *2592:5 0.5
9 *2592:4 *107:A4 1

*END

*D_NET *2593 0.5569799 //LENGTH 5.487 LUMPCC 0 DR

*CONN
*I *50:Y O *L 0 *C 21.720 26.128
*I *52:A2 I *L 0.54421 *C 23.240 25.216
*I *107:A2 I *L 0.515513 *C 22.024 28.256
*N *2593:3 *C 22.024 28.242
*N *2593:4 *C 23.240 25.230
*N *2593:5 *C 23.240 25.659
*N *2593:6 *C 23.227 25.672
*N *2593:7 *C 22.038 25.672
*N *2593:8 *C 22.024 25.686
*N *2593:9 *C 21.720 25.672
*N *2593:10 *C 21.720 26.114

*CAP
0 *50:Y 0.001
1 *52:A2 0.001
2 *107:A2 0.001
3 *2593:3 0.1556128
4 *2593:4 0.02392714
5 *2593:5 0.02507068
6 *2593:6 0.05038272
7 *2593:7 0.05038272
8 *2593:8 0.1693412
9 *2593:9 0.04738504
10 *2593:10 0.0318776

*RES
0 *50:Y *2593:10 1
1 *2593:3 *107:A2 1
2 *2593:8 *2593:7 0.5
3 *2593:8 *2593:3 4.566072
4 *2593:7 *2593:6 2.123214
5 *2593:5 *2593:4 0.7660715
6 *2593:6 *2593:5 0.5
7 *2593:4 *52:A2 1
8 *2593:10 *2593:9 0.7901786
9 *2593:9 *2593:8 0.5428572

*END

*D_NET *2595 0.8213087 //LENGTH 8.417 LUMPCC 0 DR

*CONN
*I *48:Y O *L 0 *C 20.464 26.154
*I *108:A1 I *L 0.601783 *C 19.288 25.824
*I *107:A3 I *L 0.539281 *C 21.568 27.800
*I *107:A1 I *L 0.484201 *C 22.176 27.496
*I *52:A1 I *L 0.502229 *C 23.088 25.976
*N *2595:5 *C 23.088 25.794
*N *2595:6 *C 23.088 25.963
*N *2595:7 *C 23.075 25.976
*N *2595:8 *C 22.176 27.483
*N *2595:9 *C 22.176 25.989
*N *2595:10 *C 22.176 25.976
*N *2595:11 *C 21.568 27.787
*N *2595:12 *C 21.568 25.989
*N *2595:13 *C 21.568 25.976
*N *2595:14 *C 19.288 25.824
*N *2595:15 *C 19.288 25.963
*N *2595:16 *C 19.302 25.976
*N *2595:17 *C 20.352 25.976
*N *2595:18 *C 20.352 25.976
*N *2595:19 *C 20.352 26.116
*N *2595:20 *C 20.364 26.128

*CAP
0 *48:Y 0.01117491
1 *108:A1 0.001
2 *107:A3 0.001
3 *107:A1 0.001
4 *52:A1 0.001
5 *2595:5 0.01227976
6 *2595:6 0.007578157
7 *2595:7 0.03754792
8 *2595:8 0.1108257
9 *2595:9 0.1119692
10 *2595:10 0.06118943
11 *2595:11 0.1003219
12 *2595:12 0.1014654
13 *2595:13 0.06996909
14 *2595:14 0.009922644
15 *2595:15 0.01106618
16 *2595:16 0.04378939
17 *2595:17 0.091896
18 *2595:18 0.01327369
19 *2595:19 0.0134586
20 *2595:20 0.009580782

*RES
0 *48:Y *2595:20 0.1658334
1 *2595:6 *52:A1 1
2 *2595:6 *2595:5 0.2825
3 *2595:7 *2595:6 0.5
4 *2595:9 *2595:8 2.666072
5 *2595:10 *2595:9 0.5
6 *2595:10 *2595:7 1.604464
7 *2595:8 *107:A1 1
8 *2595:12 *2595:11 3.208929
9 *2595:13 *2595:12 0.5
10 *2595:13 *2595:10 1.085714
11 *2595:11 *107:A3 1
12 *2595:18 *2595:17 0.5
13 *2595:17 *2595:16 1.875893
14 *2595:17 *2595:13 2.171429
15 *2595:20 *2595:19 1
16 *2595:19 *2595:18 0.2325
17 *2595:15 *2595:14 0.2325
18 *2595:16 *2595:15 0.5
19 *2595:14 *108:A1 1

*END

*D_NET *2598 0.3884211 //LENGTH 3.946 LUMPCC 0 DR

*CONN
*I *62:Y O *L 0 *C 14.120 44.064
*I *110:A2 I *L 0.515513 *C 13.512 44.976
*I *64:A2 I *L 0.54421 *C 11.688 44.976
*N *2598:3 *C 11.688 44.964
*N *2598:4 *C 11.688 44.824
*N *2598:5 *C 11.702 44.824
*N *2598:6 *C 13.512 44.964
*N *2598:7 *C 13.512 44.824
*N *2598:8 *C 13.512 44.824
*N *2598:9 *C 14.107 44.824
*N *2598:10 *C 14.120 44.811
*N *2598:11 *C 14.120 44.078

*CAP
0 *62:Y 0.001
1 *110:A2 0.001
2 *64:A2 0.001
3 *2598:3 0.008877958
4 *2598:4 0.01002149
5 *2598:5 0.1065012
6 *2598:6 0.006994216
7 *2598:7 0.008137748
8 *2598:8 0.1430954
9 *2598:9 0.03481521
10 *2598:10 0.03406068
11 *2598:11 0.03291714

*RES
0 *62:Y *2598:11 1
1 *2598:10 *2598:9 0.5
2 *2598:9 *2598:8 1.061607
3 *2598:11 *2598:10 1.308929
4 *2598:7 *2598:6 0.2325
5 *2598:8 *2598:7 0.5
6 *2598:8 *2598:5 3.233036
7 *2598:6 *110:A2 1
8 *2598:4 *2598:3 0.2325
9 *2598:5 *2598:4 0.5
10 *2598:3 *64:A2 1

*END

*D_NET *2600 0.6545077 //LENGTH 7.491 LUMPCC 0 DR

*CONN
*I *60:Y O *L 0 *C 11.232 46.192
*I *64:A1 I *L 0.502229 *C 11.840 44.216
*I *110:A3 I *L 0.539281 *C 13.056 44.520
*I *110:A1 I *L 0.484201 *C 13.664 44.216
*I *111:A1 I *L 0.601783 *C 13.208 42.544
*N *2600:5 *C 13.208 42.558
*N *2600:6 *C 13.664 44.203
*N *2600:7 *C 13.664 43.925
*N *2600:8 *C 13.651 43.912
*N *2600:9 *C 13.222 43.912
*N *2600:10 *C 13.208 43.912
*N *2600:11 *C 13.057 44.520
*N *2600:12 *C 13.208 44.507
*N *2600:13 *C 13.195 44.520
*N *2600:14 *C 11.840 44.230
*N *2600:15 *C 11.840 44.507
*N *2600:16 *C 11.840 44.520
*N *2600:17 *C 11.245 44.520
*N *2600:18 *C 11.232 44.534
*N *2600:19 *C 11.232 46.178

*CAP
0 *60:Y 0.001
1 *64:A1 0.001
2 *110:A3 0.001
3 *110:A1 0.001
4 *111:A1 0.001
5 *2600:5 0.06400447
6 *2600:6 0.01532331
7 *2600:7 0.01646684
8 *2600:8 0.02361045
9 *2600:9 0.02361045
10 *2600:10 0.09476063
11 *2600:11 0.004810903
12 *2600:12 0.03556707
13 *2600:13 0.06142498
14 *2600:14 0.02343473
15 *2600:15 0.02457826
16 *2600:16 0.09051503
17 *2600:17 0.02731101
18 *2600:18 0.07261656
19 *2600:19 0.07147303

*RES
0 *60:Y *2600:19 1
1 *2600:10 *2600:9 0.5
2 *2600:10 *2600:5 2.41875
3 *2600:9 *2600:8 0.7660714
4 *2600:7 *2600:6 0.4946429
5 *2600:8 *2600:7 0.5
6 *2600:6 *110:A1 1
7 *2600:5 *111:A1 1
8 *2600:11 *110:A3 1
9 *2600:12 *2600:11 0.2696429
10 *2600:12 *2600:10 1.061607
11 *2600:13 *2600:12 0.5
12 *2600:15 *2600:14 0.4946429
13 *2600:16 *2600:15 0.5
14 *2600:16 *2600:13 2.41875
15 *2600:14 *64:A1 1
16 *2600:18 *2600:17 0.5
17 *2600:17 *2600:16 1.061607
18 *2600:19 *2600:18 2.9375

*END

*D_NET *2604 0.3660895 //LENGTH 3.942 LUMPCC 0 DR

*CONN
*I *67:Y O *L 0 *C 39.200 7.888
*I *114:A2 I *L 0.537813 *C 38.440 5.912
*I *68:A I *L 0.582888 *C 39.656 5.912
*N *2604:3 *C 39.656 5.926
*N *2604:4 *C 39.656 6.216
*N *2604:5 *C 38.440 5.926
*N *2604:6 *C 38.440 6.203
*N *2604:7 *C 38.454 6.216
*N *2604:8 *C 39.187 6.216
*N *2604:9 *C 39.200 6.216
*N *2604:10 *C 39.200 7.887

*CAP
0 *67:Y 0.001
1 *114:A2 0.001
2 *68:A 0.001
3 *2604:3 0.01860315
4 *2604:4 0.03957096
5 *2604:5 0.01518923
6 *2604:6 0.01633276
7 *2604:7 0.03933553
8 *2604:8 0.03933553
9 *2604:9 0.1069556
10 *2604:10 0.0877668

*RES
0 *67:Y *2604:10 1
1 *2604:3 *68:A 1
2 *2604:10 *2604:9 2.983929
3 *2604:9 *2604:8 0.5
4 *2604:9 *2604:4 0.8142858
5 *2604:8 *2604:7 1.308929
6 *2604:6 *2604:5 0.4946429
7 *2604:7 *2604:6 0.5
8 *2604:5 *114:A2 1
9 *2604:4 *2604:3 0.5187501

*END

*D_NET *2607 5.513679 //LENGTH 66.471 LUMPCC 0 DR

*CONN
*I *45:Y O *L 0 *C 30.384 27.192
*I *115:A3 I *L 0.507548 *C 31.348 20.200
*I *55:A5 I *L 0.583269 *C 30.384 15.944
*I *65:A3 I *L 0.507548 *C 36.616 6.824
*I *67:A5 I *L 0.583269 *C 38.592 7.432
*I *69:A5 I *L 0.566579 *C 40.872 7.432
*I *112:A3 I *L 0.507548 *C 42.696 9.864
*I *53:A3 I *L 0.507548 *C 31.196 10.168
*I *57:A5 I *L 0.566579 *C 33.576 22.632
*I *51:A5 I *L 0.566579 *C 24.603 29.326
*I *47:A3 I *L 0.507548 *C 22.076 29.928
*I *500:A I *L 0.561607 *C 22.784 36.008
*I *106:A5 I *L 0.583269 *C 22.024 34.184
*I *49:A5 I *L 0.583269 *C 19.899 29.326
*N *2607:14 *C 30.384 27.010
*N *2607:15 *C 20.200 29.320
*N *2607:16 *C 20.200 29.321
*N *2607:17 *C 20.200 29.611
*N *2607:18 *C 20.213 29.624
*N *2607:19 *C 22.024 34.183
*N *2607:20 *C 22.784 35.995
*N *2607:21 *C 22.784 33.894
*N *2607:22 *C 22.771 33.880
*N *2607:23 *C 22.038 33.880
*N *2607:24 *C 22.024 33.880
*N *2607:25 *C 22.024 29.928
*N *2607:26 *C 22.024 29.928
*N *2607:27 *C 22.024 29.638
*N *2607:28 *C 22.024 29.624
*N *2607:29 *C 24.319 29.320
*N *2607:30 *C 24.304 29.334
*N *2607:31 *C 24.304 29.611
*N *2607:32 *C 24.317 29.624
*N *2607:33 *C 24.444 29.624
*N *2607:34 *C 24.456 29.638
*N *2607:35 *C 24.456 29.915
*N *2607:36 *C 24.470 29.928
*N *2607:37 *C 30.523 29.928
*N *2607:38 *C 30.536 29.915
*N *2607:39 *C 30.536 28.422
*N *2607:40 *C 30.550 28.408
*N *2607:41 *C 30.979 28.408
*N *2607:42 *C 30.992 28.395
*N *2607:43 *C 33.576 22.450
*N *2607:44 *C 33.576 22.620
*N *2607:45 *C 33.562 22.632
*N *2607:46 *C 31.144 9.986
*N *2607:47 *C 31.144 10.168
*N *2607:48 *C 31.144 10.155
*N *2607:49 *C 31.131 10.168
*N *2607:50 *C 30.854 10.168
*N *2607:51 *C 30.840 10.181
*N *2607:52 *C 42.696 9.851
*N *2607:53 *C 42.696 9.270
*N *2607:54 *C 42.683 9.256
*N *2607:55 *C 40.886 9.256
*N *2607:56 *C 40.872 9.242
*N *2607:57 *C 40.872 7.446
*N *2607:58 *C 40.858 7.432
*N *2607:59 *C 38.592 7.300
*N *2607:60 *C 38.592 7.420
*N *2607:61 *C 38.592 7.432
*N *2607:62 *C 36.616 6.838
*N *2607:63 *C 36.616 7.419
*N *2607:64 *C 36.616 7.432
*N *2607:65 *C 35.110 7.432
*N *2607:66 *C 35.096 7.446
*N *2607:67 *C 35.096 10.459
*N *2607:68 *C 35.083 10.472
*N *2607:69 *C 30.854 10.472
*N *2607:70 *C 30.840 10.472
*N *2607:71 *C 30.384 15.812
*N *2607:72 *C 30.384 15.932
*N *2607:73 *C 30.398 15.944
*N *2607:74 *C 30.839 15.944
*N *2607:75 *C 30.840 15.944
*N *2607:76 *C 30.840 20.504
*N *2607:77 *C 31.296 20.200
*N *2607:78 *C 31.296 20.213
*N *2607:79 *C 31.296 20.491
*N *2607:80 *C 31.284 20.504
*N *2607:81 *C 31.144 20.504
*N *2607:82 *C 31.144 20.518
*N *2607:83 *C 31.144 22.619
*N *2607:84 *C 31.158 22.632
*N *2607:85 *C 31.143 22.632
*N *2607:86 *C 30.992 22.632
*N *2607:87 *C 30.992 27.192
*N *2607:88 *C 30.979 27.192
*N *2607:89 *C 30.398 27.192
*N *2607:90 *C 30.384 27.180

*CAP
0 *45:Y 0.001
1 *115:A3 0.008593402
2 *55:A5 0.001
3 *65:A3 0.001
4 *67:A5 0.001
5 *69:A5 0.001
6 *112:A3 0.001
7 *53:A3 0.008556429
8 *57:A5 0.001
9 *51:A5 0.01670315
10 *47:A3 0.008590887
11 *500:A 0.001
12 *106:A5 0.001
13 *49:A5 0.01546385
14 *2607:14 0.01340733
15 *2607:15 0.02251246
16 *2607:16 0.01715331
17 *2607:17 0.0169684
18 *2607:18 0.07708086
19 *2607:19 0.01309608
20 *2607:20 0.1158361
21 *2607:21 0.1169796
22 *2607:22 0.03197456
23 *2607:23 0.03197456
24 *2607:24 0.2322635
25 *2607:25 0.00699676
26 *2607:26 0.237209
27 *2607:27 0.01900025
28 *2607:28 0.1790786
29 *2607:29 0.01510903
30 *2607:30 0.0250444
31 *2607:31 0.0248595
32 *2607:32 0.111658
33 *2607:33 0.009660351
34 *2607:34 0.01554109
35 *2607:35 0.01554123
36 *2607:36 0.1970006
37 *2607:37 0.1970006
38 *2607:38 0.0564011
39 *2607:39 0.05640095
40 *2607:40 0.02283767
41 *2607:41 0.02283757
42 *2607:42 0.0477125
43 *2607:43 0.01554004
44 *2607:44 0.01083844
45 *2607:45 0.1116038
46 *2607:46 0.01599282
47 *2607:47 0.006962303
48 *2607:48 0.01261966
49 *2607:49 0.01717346
50 *2607:50 0.01717356
51 *2607:51 0.0130493
52 *2607:52 0.02787229
53 *2607:53 0.02901583
54 *2607:54 0.09331278
55 *2607:55 0.09331278
56 *2607:56 0.07799877
57 *2607:57 0.07507621
58 *2607:58 0.1005797
59 *2607:59 0.01409995
60 *2607:60 0.007915824
61 *2607:61 0.183766
62 *2607:62 0.03499048
63 *2607:63 0.03613401
64 *2607:64 0.1429498
65 *2607:65 0.05828108
66 *2607:66 0.1076681
67 *2607:67 0.1076682
68 *2607:68 0.1281014
69 *2607:69 0.1281014
70 *2607:70 0.2183601
71 *2607:71 0.01361971
72 *2607:72 0.007435583
73 *2607:73 0.02120036
74 *2607:74 0.02268298
75 *2607:75 0.3743097
76 *2607:76 0.1818396
77 *2607:77 0.006999275
78 *2607:78 0.02770999
79 *2607:79 0.02752509
80 *2607:80 0.00925026
81 *2607:81 0.009250361
82 *2607:82 0.1086122
83 *2607:83 0.09755047
84 *2607:84 0.1098249
85 *2607:85 0.005587469
86 *2607:86 0.2351264
87 *2607:87 0.2754724
88 *2607:88 0.03438734
89 *2607:89 0.03438734
90 *2607:90 0.008705734

*RES
0 *45:Y *2607:90 1
1 *2607:56 *2607:55 0.5
2 *2607:55 *2607:54 3.208929
3 *2607:53 *2607:52 1.0375
4 *2607:54 *2607:53 0.5
5 *2607:52 *112:A3 1
6 *2607:57 *69:A5 1
7 *2607:57 *2607:56 3.208929
8 *2607:58 *2607:57 0.5
9 *2607:60 *67:A5 1
10 *2607:60 *2607:59 0.1991667
11 *2607:61 *2607:60 0.5
12 *2607:61 *2607:58 4.047322
13 *2607:63 *2607:62 1.0375
14 *2607:64 *2607:63 0.5
15 *2607:64 *2607:61 3.528572
16 *2607:62 *65:A3 1
17 *2607:44 *57:A5 1
18 *2607:44 *2607:43 0.2825
19 *2607:45 *2607:44 0.5
20 *2607:84 *2607:83 0.5
21 *2607:84 *2607:45 4.294643
22 *2607:83 *2607:82 3.751786
23 *2607:81 *2607:80 0.2325
24 *2607:82 *2607:81 0.5
25 *2607:82 *2607:76 0.5428572
26 *2607:79 *2607:78 0.4946429
27 *2607:80 *2607:79 0.5
28 *2607:77 *115:A3 0.09166668
29 *2607:78 *2607:77 1
30 *2607:85 *2607:84 0.5
31 *2607:50 *2607:49 0.4946429
32 *2607:51 *2607:50 0.5
33 *2607:48 *2607:47 1
34 *2607:48 *2607:46 0.2825
35 *2607:49 *2607:48 0.5
36 *2607:47 *53:A3 0.09166668
37 *2607:65 *2607:64 2.690179
38 *2607:66 *2607:65 0.5
39 *2607:67 *2607:66 5.380358
40 *2607:68 *2607:67 0.5
41 *2607:70 *2607:69 0.5
42 *2607:70 *2607:51 0.5187501
43 *2607:69 *2607:68 7.551786
44 *2607:87 *2607:86 8.142858
45 *2607:87 *2607:42 2.147322
46 *2607:88 *2607:87 0.5
47 *2607:90 *2607:89 0.5
48 *2607:90 *2607:14 0.2825
49 *2607:89 *2607:88 1.0375
50 *2607:74 *2607:73 0.7883929
51 *2607:75 *2607:74 0.5
52 *2607:75 *2607:70 9.771429
53 *2607:72 *55:A5 1
54 *2607:72 *2607:71 0.1991667
55 *2607:73 *2607:72 0.5
56 *2607:42 *2607:41 0.5
57 *2607:41 *2607:40 0.7660714
58 *2607:40 *2607:39 0.5
59 *2607:39 *2607:38 2.666071
60 *2607:38 *2607:37 0.5
61 *2607:37 *2607:36 10.80893
62 *2607:35 *2607:34 0.4946429
63 *2607:36 *2607:35 0.5
64 *2607:33 *2607:32 0.2116667
65 *2607:34 *2607:33 0.5
66 *2607:31 *2607:30 0.4946429
67 *2607:32 *2607:31 0.5
68 *2607:32 *2607:28 4.09375
69 *2607:29 *51:A5 0.394
70 *2607:30 *2607:29 1
71 *2607:19 *106:A5 1
72 *2607:24 *2607:23 0.5
73 *2607:24 *2607:19 0.5410715
74 *2607:23 *2607:22 1.308929
75 *2607:21 *2607:20 3.751786
76 *2607:22 *2607:21 0.5
77 *2607:20 *500:A 1
78 *2607:25 *47:A3 0.09166668
79 *2607:26 *2607:25 1
80 *2607:26 *2607:24 7.057143
81 *2607:27 *2607:26 0.5187501
82 *2607:28 *2607:27 0.5
83 *2607:28 *2607:18 3.233036
84 *2607:17 *2607:16 0.5169644
85 *2607:18 *2607:17 0.5
86 *2607:15 *49:A5 0.424
87 *2607:16 *2607:15 1
88 *2607:86 *2607:85 0.2696429
89 *2607:76 *2607:75 8.142858

*END

*D_NET *2614 2.971152 //LENGTH 29.480 LUMPCC 0 DR

*CONN
*I *395:Q O *L 0 *C 17.160 22.328
*I *384:A2 I *L 0.501039 *C 19.136 22.328
*I *383:A4 I *L 0.569168 *C 19.896 24.000
*I *349:A2 I *L 0.501039 *C 18.984 41.176
*I *61:A2 I *L 0.52073 *C 18.984 42.848
*I *325:A2 I *L 0.482724 *C 22.784 42.696
*N *2614:6 *C 17.160 22.146
*N *2614:7 *C 22.784 42.710
*N *2614:8 *C 22.784 42.986
*N *2614:9 *C 22.771 43.000
*N *2614:10 *C 18.998 43.000
*N *2614:11 *C 18.984 42.988
*N *2614:12 *C 18.984 42.822
*N *2614:13 *C 18.984 41.176
*N *2614:14 *C 18.984 24.608
*N *2614:15 *C 19.136 24.608
*N *2614:16 *C 19.896 23.986
*N *2614:17 *C 19.896 23.254
*N *2614:18 *C 19.883 23.240
*N *2614:19 *C 19.149 23.240
*N *2614:20 *C 19.136 23.240
*N *2614:21 *C 19.136 22.341
*N *2614:22 *C 19.123 22.328
*N *2614:23 *C 17.174 22.328
*N *2614:24 *C 17.160 22.316

*CAP
0 *395:Q 0.001
1 *384:A2 0.001
2 *383:A4 0.001
3 *349:A2 0.001
4 *61:A2 0.001
5 *325:A2 0.001
6 *2614:6 0.01238328
7 *2614:7 0.01819956
8 *2614:8 0.01934309
9 *2614:9 0.1662805
10 *2614:10 0.1662805
11 *2614:11 0.008622747
12 *2614:12 0.1042538
13 *2614:13 0.970392
14 *2614:14 0.8844026
15 *2614:15 0.09663679
16 *2614:16 0.03860543
17 *2614:17 0.03974897
18 *2614:18 0.0338002
19 *2614:19 0.0338002
20 *2614:20 0.1494347
21 *2614:21 0.05773788
22 *2614:22 0.07877406
23 *2614:23 0.07877406
24 *2614:24 0.007681679

*RES
0 *395:Q *2614:24 1
1 *2614:20 *2614:19 0.5
2 *2614:20 *2614:15 2.442857
3 *2614:19 *2614:18 1.308929
4 *2614:17 *2614:16 1.308929
5 *2614:18 *2614:17 0.5
6 *2614:16 *383:A4 1
7 *2614:21 *384:A2 1
8 *2614:21 *2614:20 1.604464
9 *2614:12 *61:A2 1
10 *2614:12 *2614:11 0.2758334
11 *2614:11 *2614:10 0.5
12 *2614:10 *2614:9 6.737501
13 *2614:8 *2614:7 0.4946429
14 *2614:9 *2614:8 0.5
15 *2614:7 *325:A2 1
16 *2614:13 *349:A2 1
17 *2614:13 *2614:12 2.939286
18 *2614:22 *2614:21 0.5
19 *2614:24 *2614:23 0.5
20 *2614:24 *2614:6 0.2825
21 *2614:23 *2614:22 3.480357
22 *2614:14 *2614:13 29.58572
23 *2614:15 *2614:14 0.2714286

*END

*D_NET *2617 1.826595 //LENGTH 19.314 LUMPCC 0 DR

*CONN
*I *406:Q O *L 0 *C 22.632 18.984
*I *378:A4 I *L 0.569168 *C 22.024 22.784
*I *379:A2 I *L 0.501039 *C 20.656 22.328
*I *352:A2 I *L 0.501039 *C 20.504 31.144
*I *47:A2 I *L 0.52073 *C 22.480 29.472
*I *285:A2 I *L 0.466516 *C 22.784 27.496
*N *2617:6 *C 22.784 27.495
*N *2617:7 *C 22.784 27.192
*N *2617:8 *C 22.480 29.459
*N *2617:9 *C 20.504 31.131
*N *2617:10 *C 20.504 30.232
*N *2617:11 *C 20.656 30.232
*N *2617:12 *C 20.656 28.422
*N *2617:13 *C 20.669 28.408
*N *2617:14 *C 22.466 28.408
*N *2617:15 *C 22.480 28.408
*N *2617:16 *C 22.480 27.192
*N *2617:17 *C 22.632 27.192
*N *2617:18 *C 20.656 22.146
*N *2617:19 *C 20.656 22.316
*N *2617:20 *C 20.669 22.328
*N *2617:21 *C 22.024 22.771
*N *2617:22 *C 22.024 22.341
*N *2617:23 *C 22.024 22.328
*N *2617:24 *C 22.619 22.328
*N *2617:25 *C 22.632 22.328
*N *2617:26 *C 22.632 18.998

*CAP
0 *406:Q 0.001
1 *378:A4 0.001
2 *379:A2 0.001
3 *352:A2 0.001
4 *47:A2 0.001
5 *285:A2 0.001
6 *2617:6 0.01753592
7 *2617:7 0.02659837
8 *2617:8 0.06691883
9 *2617:9 0.05111413
10 *2617:10 0.06223779
11 *2617:11 0.1127722
12 *2617:12 0.1027921
13 *2617:13 0.07649309
14 *2617:14 0.07649309
15 *2617:15 0.1517147
16 *2617:16 0.08992505
17 *2617:17 0.2195909
18 *2617:18 0.01661758
19 *2617:19 0.01191598
20 *2617:20 0.05219516
21 *2617:21 0.02389523
22 *2617:22 0.02503876
23 *2617:23 0.07808361
24 *2617:24 0.02410942
25 *2617:25 0.3713709
26 *2617:26 0.1631819

*RES
0 *406:Q *2617:26 1
1 *2617:6 *285:A2 1
2 *2617:26 *2617:25 5.947322
3 *2617:8 *47:A2 1
4 *2617:25 *2617:24 0.5
5 *2617:25 *2617:17 8.685715
6 *2617:24 *2617:23 1.061607
7 *2617:22 *2617:21 0.7660715
8 *2617:23 *2617:22 0.5
9 *2617:23 *2617:20 2.41875
10 *2617:21 *378:A4 1
11 *2617:19 *379:A2 1
12 *2617:19 *2617:18 0.2825
13 *2617:20 *2617:19 0.5
14 *2617:15 *2617:14 0.5
15 *2617:15 *2617:8 1.875893
16 *2617:14 *2617:13 3.208929
17 *2617:12 *2617:11 3.233036
18 *2617:13 *2617:12 0.5
19 *2617:9 *352:A2 1
20 *2617:10 *2617:9 1.604464
21 *2617:11 *2617:10 0.2714286
22 *2617:16 *2617:15 2.171429
23 *2617:17 *2617:16 0.2714286
24 *2617:17 *2617:7 0.2714286
25 *2617:7 *2617:6 0.5410714

*END

*D_NET *2621 2.544822 //LENGTH 30.130 LUMPCC 0 DR

*CONN
*I *398:Q O *L 0 *C 28.104 12.296
*I *356:A2 I *L 0.501039 *C 28.104 11.080
*I *381:A4 I *L 0.569168 *C 22.936 12.752
*I *53:A2 I *L 0.52073 *C 31.600 10.624
*I *289:A1 I *L 0.549073 *C 39.656 21.112
*N *2621:5 *C 39.656 21.111
*N *2621:6 *C 39.656 19.896
*N *2621:7 *C 39.808 19.896
*N *2621:8 *C 39.808 12.918
*N *2621:9 *C 39.794 12.904
*N *2621:10 *C 31.600 10.638
*N *2621:11 *C 31.600 12.891
*N *2621:12 *C 31.600 12.904
*N *2621:13 *C 22.936 12.752
*N *2621:14 *C 22.936 12.892
*N *2621:15 *C 22.950 12.904
*N *2621:16 *C 28.104 12.904
*N *2621:17 *C 28.104 12.891
*N *2621:18 *C 28.104 11.094
*N *2621:19 *C 28.104 12.296

*CAP
0 *398:Q 0.001
1 *356:A2 0.001
2 *381:A4 0.001
3 *53:A2 0.001
4 *289:A1 0.001
5 *2621:5 0.07761698
6 *2621:6 0.08735201
7 *2621:7 0.3408907
8 *2621:8 0.3322992
9 *2621:9 0.305647
10 *2621:10 0.1505536
11 *2621:11 0.1516972
12 *2621:12 0.4312914
13 *2621:13 0.01274623
14 *2621:14 0.01388976
15 *2621:15 0.185585
16 *2621:16 0.3112293
17 *2621:17 0.02211753
18 *2621:18 0.04650495
19 *2621:19 0.07040151

*RES
0 *398:Q *2621:19 1
1 *2621:8 *2621:7 12.46161
2 *2621:9 *2621:8 0.5
3 *2621:5 *289:A1 1
4 *2621:11 *2621:10 4.023215
5 *2621:12 *2621:11 0.5
6 *2621:12 *2621:9 14.63304
7 *2621:10 *53:A2 1
8 *2621:17 *2621:16 0.5
9 *2621:16 *2621:15 9.204465
10 *2621:16 *2621:12 6.242858
11 *2621:19 *2621:18 2.147322
12 *2621:19 *2621:17 1.061607
13 *2621:18 *356:A2 1
14 *2621:14 *2621:13 0.2325
15 *2621:15 *2621:14 0.5
16 *2621:13 *381:A4 1
17 *2621:6 *2621:5 2.169643
18 *2621:7 *2621:6 0.2714286

*END

*D_NET *2624 3.489183 //LENGTH 47.405 LUMPCC 0 DR

*CONN
*I *401:Q O *L 0 *C 11.840 11.080
*I *393:A4 I *L 0.569168 *C 17.312 10.624
*I *359:A2 I *L 0.501039 *C 31.121 17.768
*I *252:A I *L 0.582888 *C 45.280 20.808
*I *115:A2 I *L 0.52073 *C 31.752 20.656
*N *2624:5 *C 11.840 10.898
*N *2624:6 *C 31.752 20.656
*N *2624:7 *C 31.752 20.796
*N *2624:8 *C 31.752 20.626
*N *2624:9 *C 45.128 20.626
*N *2624:10 *C 45.280 20.626
*N *2624:11 *C 45.280 20.796
*N *2624:12 *C 45.268 20.808
*N *2624:13 *C 45.128 20.808
*N *2624:14 *C 45.128 20.796
*N *2624:15 *C 45.114 20.808
*N *2624:16 *C 31.766 20.808
*N *2624:17 *C 31.752 20.796
*N *2624:18 *C 31.739 20.808
*N *2624:19 *C 31.462 20.808
*N *2624:20 *C 31.448 20.794
*N *2624:21 *C 31.284 17.768
*N *2624:22 *C 31.297 17.768
*N *2624:23 *C 31.448 17.782
*N *2624:24 *C 31.434 17.768
*N *2624:25 *C 30.550 17.768
*N *2624:26 *C 30.536 17.755
*N *2624:27 *C 30.536 14.742
*N *2624:28 *C 30.523 14.728
*N *2624:29 *C 22.341 14.728
*N *2624:30 *C 22.328 14.715
*N *2624:31 *C 22.328 11.094
*N *2624:32 *C 22.315 11.080
*N *2624:33 *C 17.312 10.623
*N *2624:34 *C 17.312 10.320
*N *2624:35 *C 17.616 10.320
*N *2624:36 *C 17.616 11.067
*N *2624:37 *C 17.616 11.080
*N *2624:38 *C 11.854 11.080
*N *2624:39 *C 11.840 11.068

*CAP
0 *401:Q 0.001
1 *393:A4 0.001
2 *359:A2 0.01232826
3 *252:A 0.001
4 *115:A2 0.001
5 *2624:5 0.01722717
6 *2624:6 0.0127064
7 *2624:7 0.01384993
8 *2624:8 0.01111012
9 *2624:9 0.008421992
10 *2624:10 0.01428239
11 *2624:11 0.009580794
12 *2624:12 0.008968018
13 *2624:13 0.00896812
14 *2624:14 0.004864272
15 *2624:15 0.3692562
16 *2624:16 0.3692562
17 *2624:17 0.007552398
18 *2624:18 0.0192134
19 *2624:19 0.02099233
20 *2624:20 0.1639791
21 *2624:21 0.01073413
22 *2624:22 0.005818752
23 *2624:23 0.171392
24 *2624:24 0.05035238
25 *2624:25 0.05035248
26 *2624:26 0.1215492
27 *2624:27 0.1215492
28 *2624:28 0.3539066
29 *2624:29 0.3539066
30 *2624:30 0.1249022
31 *2624:31 0.1249022
32 *2624:32 0.1688572
33 *2624:33 0.01919105
34 *2624:34 0.03451359
35 *2624:35 0.05677227
36 *2624:36 0.04259326
37 *2624:37 0.3797219
38 *2624:38 0.2090858
39 *2624:39 0.01252557

*RES
0 *401:Q *2624:39 1
1 *2624:18 *2624:17 0.5
2 *2624:18 *2624:7 0.5
3 *2624:17 *2624:16 0.5
4 *2624:17 *2624:8 0.2825
5 *2624:16 *2624:15 23.8375
6 *2624:14 *2624:13 0.5
7 *2624:14 *2624:9 0.2825
8 *2624:15 *2624:14 0.5
9 *2624:13 *2624:12 0.2325
10 *2624:11 *252:A 1
11 *2624:11 *2624:10 0.2825
12 *2624:12 *2624:11 0.5
13 *2624:7 *2624:6 0.2325
14 *2624:6 *115:A2 1
15 *2624:20 *2624:19 0.5
16 *2624:19 *2624:18 0.4946429
17 *2624:21 *359:A2 0.2708333
18 *2624:22 *2624:21 1
19 *2624:23 *2624:22 0.2696429
20 *2624:23 *2624:20 5.380358
21 *2624:24 *2624:23 0.5
22 *2624:25 *2624:24 1.580357
23 *2624:26 *2624:25 0.5
24 *2624:28 *2624:27 0.5
25 *2624:27 *2624:26 5.380357
26 *2624:29 *2624:28 14.60893
27 *2624:30 *2624:29 0.5
28 *2624:32 *2624:31 0.5
29 *2624:31 *2624:30 6.466072
30 *2624:36 *2624:35 1.333036
31 *2624:37 *2624:36 0.5
32 *2624:37 *2624:32 8.390179
33 *2624:33 *393:A4 1
34 *2624:39 *2624:38 0.5
35 *2624:39 *2624:5 0.2825
36 *2624:38 *2624:37 10.29018
37 *2624:34 *2624:33 0.5410715
38 *2624:35 *2624:34 0.5428572

*END

*D_NET *2629 2.873703 //LENGTH 27.052 LUMPCC 0 DR

*CONN
*I *340:Q O *L 0 *C 27.192 37.090
*I *260:A3 I *L 0.664754 *C 25.368 40.720
*I *91:A2 I *L 0.515513 *C 17.616 45.280
*I *59:A4 I *L 0.552216 *C 16.856 42.392
*I *90:A2 I *L 0.504426 *C 15.640 45.736
*I *327:A2 I *L 0.52073 *C 27.877 42.848
*N *2629:6 *C 27.663 42.848
*N *2629:7 *C 27.648 42.836
*N *2629:8 *C 27.648 42.696
*N *2629:9 *C 27.635 42.696
*N *2629:10 *C 15.640 45.723
*N *2629:11 *C 15.640 44.838
*N *2629:12 *C 15.654 44.824
*N *2629:13 *C 16.856 42.393
*N *2629:14 *C 16.856 44.811
*N *2629:15 *C 16.856 44.824
*N *2629:16 *C 17.616 45.267
*N *2629:17 *C 17.616 44.838
*N *2629:18 *C 17.616 44.824
*N *2629:19 *C 24.139 44.824
*N *2629:20 *C 24.152 44.811
*N *2629:21 *C 24.152 42.710
*N *2629:22 *C 24.166 42.696
*N *2629:23 *C 25.368 40.733
*N *2629:24 *C 25.368 42.683
*N *2629:25 *C 25.368 42.696
*N *2629:26 *C 27.192 42.696
*N *2629:27 *C 27.192 42.683
*N *2629:28 *C 27.192 37.086
*N *2629:29 *C 27.192 37.072

*CAP
0 *340:Q 0.007190013
1 *260:A3 0.001
2 *91:A2 0.001
3 *59:A4 0.001
4 *90:A2 0.001
5 *327:A2 0.01676751
6 *2629:6 0.01517338
7 *2629:7 0.01048719
8 *2629:8 0.01030228
9 *2629:9 0.0181295
10 *2629:10 0.05296302
11 *2629:11 0.05410655
12 *2629:12 0.0671648
13 *2629:13 0.1236735
14 *2629:14 0.1248171
15 *2629:15 0.1083654
16 *2629:16 0.02575275
17 *2629:17 0.02689629
18 *2629:18 0.4048782
19 *2629:19 0.3636777
20 *2629:20 0.06672197
21 *2629:21 0.06672197
22 *2629:22 0.05524349
23 *2629:23 0.1113528
24 *2629:24 0.1124963
25 *2629:25 0.1341151
26 *2629:26 0.09700115
27 *2629:27 0.3949623
28 *2629:28 0.3951472
29 *2629:29 0.005595886

*RES
0 *340:Q *2629:29 0.02727273
1 *2629:8 *2629:7 0.2325
2 *2629:9 *2629:8 0.5
3 *2629:6 *327:A2 0.428
4 *2629:7 *2629:6 1
5 *2629:27 *2629:26 0.5
6 *2629:26 *2629:25 3.257143
7 *2629:26 *2629:9 0.7901787
8 *2629:29 *2629:28 1
9 *2629:28 *2629:27 9.994644
10 *2629:24 *2629:23 3.480357
11 *2629:25 *2629:24 0.5
12 *2629:25 *2629:22 2.147322
13 *2629:23 *260:A3 1
14 *2629:22 *2629:21 0.5
15 *2629:21 *2629:20 3.751786
16 *2629:19 *2629:18 11.64732
17 *2629:20 *2629:19 0.5
18 *2629:17 *2629:16 0.7660715
19 *2629:18 *2629:17 0.5
20 *2629:18 *2629:15 1.357143
21 *2629:16 *91:A2 1
22 *2629:14 *2629:13 4.316965
23 *2629:15 *2629:14 0.5
24 *2629:15 *2629:12 2.147322
25 *2629:13 *59:A4 1
26 *2629:11 *2629:10 1.580357
27 *2629:12 *2629:11 0.5
28 *2629:10 *90:A2 1

*END

*D_NET *2633 2.037985 //LENGTH 22.308 LUMPCC 0 DR

*CONN
*I *239:Q O *L 0 *C 30.840 29.016
*I *98:A2 I *L 0.504426 *C 22.176 31.144
*I *47:A4 I *L 0.552216 *C 22.299 29.158
*I *99:A2 I *L 0.515513 *C 25.064 31.600
*I *258:A2 I *L 0.578798 *C 32.512 34.184
*I *284:A5 I *L 0.583269 *C 33.424 29.320
*N *2633:6 *C 33.424 29.321
*N *2633:7 *C 33.424 29.611
*N *2633:8 *C 33.410 29.624
*N *2633:9 *C 32.512 34.171
*N *2633:10 *C 32.512 33.576
*N *2633:11 *C 32.360 33.576
*N *2633:12 *C 32.360 29.638
*N *2633:13 *C 32.360 29.624
*N *2633:14 *C 25.064 31.588
*N *2633:15 *C 22.221 29.168
*N *2633:16 *C 22.176 29.181
*N *2633:17 *C 22.176 31.144
*N *2633:18 *C 22.176 31.434
*N *2633:19 *C 22.190 31.448
*N *2633:20 *C 25.050 31.448
*N *2633:21 *C 25.064 31.422
*N *2633:22 *C 25.064 31.158
*N *2633:23 *C 25.078 31.144
*N *2633:24 *C 30.839 31.144
*N *2633:25 *C 30.840 31.143
*N *2633:26 *C 30.840 29.638
*N *2633:27 *C 30.854 29.624
*N *2633:28 *C 30.840 29.611
*N *2633:29 *C 30.840 29.030

*CAP
0 *239:Q 0.001
1 *98:A2 0.001
2 *47:A4 0.008626619
3 *99:A2 0.001
4 *258:A2 0.001
5 *284:A5 0.001
6 *2633:6 0.01653604
7 *2633:7 0.01767957
8 *2633:8 0.04760465
9 *2633:9 0.03660744
10 *2633:10 0.04713562
11 *2633:11 0.2272844
12 *2633:12 0.2178998
13 *2633:13 0.1148036
14 *2633:14 0.00932205
15 *2633:15 0.007032492
16 *2633:16 0.1146226
17 *2633:17 0.1353484
18 *2633:18 0.02027522
19 *2633:19 0.1267627
20 *2633:20 0.1267627
21 *2633:21 0.03604951
22 *2633:22 0.02380489
23 *2633:23 0.2334812
24 *2633:24 0.2334813
25 *2633:25 0.05711921
26 *2633:26 0.05711921
27 *2633:27 0.063641
28 *2633:28 0.02756429
29 *2633:29 0.02642076

*RES
0 *239:Q *2633:29 1
1 *2633:7 *2633:6 0.5169643
2 *2633:8 *2633:7 0.5
3 *2633:6 *284:A5 1
4 *2633:12 *2633:11 7.033036
5 *2633:13 *2633:12 0.5
6 *2633:13 *2633:8 1.875893
7 *2633:9 *258:A2 1
8 *2633:28 *2633:27 0.5
9 *2633:27 *2633:26 0.5
10 *2633:27 *2633:13 2.690179
11 *2633:29 *2633:28 1.0375
12 *2633:14 *99:A2 1
13 *2633:26 *2633:25 2.688393
14 *2633:24 *2633:23 10.28839
15 *2633:25 *2633:24 0.5
16 *2633:22 *2633:21 0.4723215
17 *2633:23 *2633:22 0.5
18 *2633:21 *2633:20 0.5
19 *2633:21 *2633:14 0.2758334
20 *2633:20 *2633:19 5.108929
21 *2633:18 *2633:17 0.5187501
22 *2633:19 *2633:18 0.5
23 *2633:17 *98:A2 1
24 *2633:17 *2633:16 3.504465
25 *2633:15 *47:A4 0.01666667
26 *2633:16 *2633:15 1
27 *2633:11 *2633:10 0.2714286
28 *2633:10 *2633:9 1.061607

*END

*D_NET *2634 1.883391 //LENGTH 22.204 LUMPCC 0 DR

*CONN
*I *238:Q O *L 0 *C 30.840 31.144
*I *99:A4 I *L 0.514778 *C 24.912 30.992
*I *98:A4 I *L 0.566007 *C 22.313 30.688
*I *49:A6 I *L 0.609639 *C 20.048 29.776
*I *279:A5 I *L 0.551519 *C 32.664 32.816
*I *283:A4 I *L 0.514778 *C 34.944 32.512
*N *2634:6 *C 31.144 30.962
*N *2634:7 *C 34.944 32.526
*N *2634:8 *C 34.944 33.259
*N *2634:9 *C 34.931 33.272
*N *2634:10 *C 32.664 32.830
*N *2634:11 *C 32.664 33.259
*N *2634:12 *C 32.664 33.272
*N *2634:13 *C 31.766 33.272
*N *2634:14 *C 31.752 33.259
*N *2634:15 *C 31.752 31.158
*N *2634:16 *C 31.739 31.144
*N *2634:17 *C 31.158 31.144
*N *2634:18 *C 31.144 31.132
*N *2634:19 *C 31.131 31.144
*N *2634:20 *C 30.993 31.144
*N *2634:21 *C 30.979 31.144
*N *2634:22 *C 20.048 29.777
*N *2634:23 *C 20.048 30.523
*N *2634:24 *C 20.062 30.536
*N *2634:25 *C 21.887 30.688
*N *2634:26 *C 21.872 30.676
*N *2634:27 *C 21.872 30.536
*N *2634:28 *C 21.872 30.536
*N *2634:29 *C 24.912 30.979
*N *2634:30 *C 24.912 30.550
*N *2634:31 *C 24.912 30.536
*N *2634:32 *C 30.827 30.536
*N *2634:33 *C 30.840 30.550
*N *2634:34 *C 30.840 31.144

*CAP
0 *238:Q 0.001
1 *99:A4 0.001
2 *98:A4 0.02632144
3 *49:A6 0.001
4 *279:A5 0.001
5 *283:A4 0.001
6 *2634:6 0.01070828
7 *2634:7 0.04560506
8 *2634:8 0.04674859
9 *2634:9 0.09841599
10 *2634:10 0.03357944
11 *2634:11 0.03472297
12 *2634:12 0.1412262
13 *2634:13 0.04103133
14 *2634:14 0.06810842
15 *2634:15 0.06810857
16 *2634:16 0.01850472
17 *2634:17 0.01850472
18 *2634:18 0.007150562
19 *2634:19 0.008885365
20 *2634:20 0.008885263
21 *2634:21 0.006813184
22 *2634:22 0.04468928
23 *2634:23 0.04583282
24 *2634:24 0.08344638
25 *2634:25 0.02472732
26 *2634:26 0.01775891
27 *2634:27 0.017574
28 *2634:28 0.2173053
29 *2634:29 0.02980704
30 *2634:30 0.03095057
31 *2634:31 0.3790554
32 *2634:32 0.2451965
33 *2634:33 0.02563922
34 *2634:34 0.03308791

*RES
0 *238:Q *2634:34 1
1 *2634:8 *2634:7 1.308929
2 *2634:9 *2634:8 0.5
3 *2634:7 *283:A4 1
4 *2634:11 *2634:10 0.7660714
5 *2634:12 *2634:11 0.5
6 *2634:12 *2634:9 4.047321
7 *2634:10 *279:A5 1
8 *2634:13 *2634:12 1.604464
9 *2634:14 *2634:13 0.5
10 *2634:15 *2634:14 3.751786
11 *2634:16 *2634:15 0.5
12 *2634:18 *2634:17 0.5
13 *2634:18 *2634:6 0.2825
14 *2634:17 *2634:16 1.0375
15 *2634:19 *2634:18 0.5
16 *2634:21 *2634:20 0.5
17 *2634:20 *2634:19 0.2455357
18 *2634:34 *2634:33 1.061607
19 *2634:34 *2634:21 0.2473214
20 *2634:33 *2634:32 0.5
21 *2634:32 *2634:31 10.56161
22 *2634:30 *2634:29 0.7660714
23 *2634:31 *2634:30 0.5
24 *2634:31 *2634:28 5.428572
25 *2634:29 *99:A4 1
26 *2634:27 *2634:26 0.2325
27 *2634:28 *2634:27 0.5
28 *2634:28 *2634:24 3.233036
29 *2634:25 *98:A4 0.8520001
30 *2634:26 *2634:25 1
31 *2634:23 *2634:22 1.33125
32 *2634:24 *2634:23 0.5
33 *2634:22 *49:A6 1

*END

*D_NET *2640 1.468066 //LENGTH 17.129 LUMPCC 0 DR

*CONN
*I *243:Q O *L 0 *C 35.096 22.328
*I *73:A4 I *L 0.566007 *C 33.564 20.656
*I *115:A4 I *L 0.552216 *C 31.600 21.112
*I *86:A1 I *L 0.484201 *C 34.184 19.288
*I *287:A3 I *L 0.456834 *C 41.480 24.152
*N *2640:5 *C 41.480 24.139
*N *2640:6 *C 41.480 22.038
*N *2640:7 *C 41.467 22.024
*N *2640:8 *C 34.184 19.302
*N *2640:9 *C 31.600 21.111
*N *2640:10 *C 31.600 20.518
*N *2640:11 *C 31.614 20.504
*N *2640:12 *C 33.437 20.656
*N *2640:13 *C 33.424 20.643
*N *2640:14 *C 33.424 20.504
*N *2640:15 *C 33.424 20.504
*N *2640:16 *C 34.171 20.504
*N *2640:17 *C 34.184 20.491
*N *2640:18 *C 34.032 20.504
*N *2640:19 *C 34.032 22.011
*N *2640:20 *C 34.046 22.024
*N *2640:21 *C 35.096 22.024
*N *2640:22 *C 35.096 22.038
*N *2640:23 *C 35.096 22.315

*CAP
0 *243:Q 0.001
1 *73:A4 0.01308034
2 *115:A4 0.001
3 *86:A1 0.001
4 *287:A3 0.001
5 *2640:5 0.08557622
6 *2640:6 0.08671974
7 *2640:7 0.2630838
8 *2640:8 0.05583783
9 *2640:9 0.03713616
10 *2640:10 0.03827969
11 *2640:11 0.07445063
12 *2640:12 0.01148622
13 *2640:13 0.01531663
14 *2640:14 0.01513172
15 *2640:15 0.1054433
16 *2640:16 0.02921364
17 *2640:17 0.06414676
18 *2640:18 0.09689698
19 *2640:19 0.08795253
20 *2640:20 0.04312003
21 *2640:21 0.3079829
22 *2640:22 0.01717716
23 *2640:23 0.01603363

*RES
0 *243:Q *2640:23 1
1 *2640:6 *2640:5 3.751786
2 *2640:7 *2640:6 0.5
3 *2640:5 *287:A3 1
4 *2640:22 *2640:21 0.5
5 *2640:21 *2640:20 1.875893
6 *2640:21 *2640:7 11.37589
7 *2640:23 *2640:22 0.4946429
8 *2640:8 *86:A1 1
9 *2640:19 *2640:18 2.690179
10 *2640:20 *2640:19 0.5
11 *2640:17 *2640:16 0.5
12 *2640:17 *2640:8 2.123214
13 *2640:16 *2640:15 1.333036
14 *2640:14 *2640:13 0.2325
15 *2640:15 *2640:14 0.5
16 *2640:15 *2640:11 3.233036
17 *2640:12 *73:A4 0.2116667
18 *2640:13 *2640:12 1
19 *2640:10 *2640:9 1.059821
20 *2640:11 *2640:10 0.5
21 *2640:9 *115:A4 1
22 *2640:18 *2640:17 0.2714286

*END

*D_NET *2643 2.611914 //LENGTH 31.396 LUMPCC 0 DR

*CONN
*I *246:Q O *L 0 *C 38.440 17.768
*I *256:A1 I *L 0.666174 *C 44.064 17.616
*I *300:A1 I *L 0.483711 *C 45.280 12.600
*I *300:A3 I *L 0.536755 *C 45.888 12.296
*I *85:A4 I *L 0.514778 *C 45.736 9.104
*I *69:A6 I *L 0.558565 *C 40.720 7.128
*I *303:A2 I *L 0.509119 *C 46.800 8.952
*I *84:A4 I *L 0.566007 *C 45.572 7.280
*N *2643:8 *C 38.440 17.586
*N *2643:9 *C 38.136 17.586
*N *2643:10 *C 45.445 7.280
*N *2643:11 *C 45.432 7.280
*N *2643:12 *C 45.432 7.420
*N *2643:13 *C 45.446 7.432
*N *2643:14 *C 45.875 7.432
*N *2643:15 *C 45.888 7.446
*N *2643:16 *C 46.800 8.939
*N *2643:17 *C 46.800 8.053
*N *2643:18 *C 46.787 8.040
*N *2643:19 *C 40.720 7.129
*N *2643:20 *C 40.720 8.027
*N *2643:21 *C 40.733 8.040
*N *2643:22 *C 45.888 8.040
*N *2643:23 *C 45.888 8.040
*N *2643:24 *C 45.736 9.091
*N *2643:25 *C 45.736 8.952
*N *2643:26 *C 45.888 8.952
*N *2643:27 *C 45.888 12.296
*N *2643:28 *C 45.888 12.587
*N *2643:29 *C 45.875 12.600
*N *2643:30 *C 45.280 12.418
*N *2643:31 *C 45.280 12.588
*N *2643:32 *C 45.280 12.600
*N *2643:33 *C 44.230 12.600
*N *2643:34 *C 44.216 12.614
*N *2643:35 *C 44.064 17.602
*N *2643:36 *C 44.064 15.958
*N *2643:37 *C 44.064 15.944
*N *2643:38 *C 44.204 15.944
*N *2643:39 *C 44.216 15.944
*N *2643:40 *C 44.216 17.755
*N *2643:41 *C 44.203 17.768
*N *2643:42 *C 38.150 17.768
*N *2643:43 *C 38.136 17.756
*N *2643:44 *C 38.150 17.768
*N *2643:45 *C 38.427 17.768
*N *2643:46 *C 38.440 17.756

*CAP
0 *246:Q 0.001
1 *256:A1 0.001
2 *300:A1 0.001
3 *300:A3 0.001
4 *85:A4 0.001
5 *69:A6 0.001
6 *303:A2 0.001
7 *84:A4 0.01393111
8 *2643:8 0.0153285
9 *2643:9 0.008995381
10 *2643:10 0.01233699
11 *2643:11 0.01328384
12 *2643:12 0.01309893
13 *2643:13 0.02205669
14 *2643:14 0.02205669
15 *2643:15 0.03021089
16 *2643:16 0.04763031
17 *2643:17 0.04877384
18 *2643:18 0.03602811
19 *2643:19 0.04397475
20 *2643:20 0.04511828
21 *2643:21 0.208191
22 *2643:22 0.2459981
23 *2643:23 0.08726134
24 *2643:24 0.01251546
25 *2643:25 0.02291573
26 *2643:26 0.2445071
27 *2643:27 0.197421
28 *2643:28 0.01858559
29 *2643:29 0.02368625
30 *2643:30 0.01740218
31 *2643:31 0.01270058
32 *2643:32 0.06892816
33 *2643:33 0.04346298
34 *2643:34 0.1494275
35 *2643:35 0.09229702
36 *2643:36 0.09344054
37 *2643:37 0.008240786
38 *2643:38 0.008240888
39 *2643:39 0.2225298
40 *2643:40 0.07132348
41 *2643:41 0.1673046
42 *2643:42 0.1673046
43 *2643:43 0.005437661
44 *2643:44 0.01617041
45 *2643:45 0.01617031
46 *2643:46 0.0106269

*RES
0 *246:Q *2643:46 1
1 *2643:17 *2643:16 1.580357
2 *2643:18 *2643:17 0.5
3 *2643:16 *303:A2 1
4 *2643:27 *300:A3 1
5 *2643:27 *2643:26 5.971429
6 *2643:23 *2643:22 0.5
7 *2643:23 *2643:15 1.061607
8 *2643:22 *2643:21 9.204465
9 *2643:22 *2643:18 1.604464
10 *2643:24 *85:A4 1
11 *2643:15 *2643:14 0.5
12 *2643:14 *2643:13 0.7660714
13 *2643:12 *2643:11 0.2325
14 *2643:13 *2643:12 0.5
15 *2643:10 *84:A4 0.2116667
16 *2643:11 *2643:10 1
17 *2643:28 *2643:27 0.5187501
18 *2643:29 *2643:28 0.5
19 *2643:31 *300:A1 1
20 *2643:31 *2643:30 0.2825
21 *2643:32 *2643:31 0.5
22 *2643:32 *2643:29 1.061607
23 *2643:33 *2643:32 1.875893
24 *2643:34 *2643:33 0.5
25 *2643:38 *2643:37 0.2325
26 *2643:39 *2643:38 0.5
27 *2643:39 *2643:34 5.947322
28 *2643:36 *2643:35 2.9375
29 *2643:37 *2643:36 0.5
30 *2643:35 *256:A1 1
31 *2643:20 *2643:19 1.602679
32 *2643:21 *2643:20 0.5
33 *2643:19 *69:A6 1
34 *2643:40 *2643:39 3.233036
35 *2643:41 *2643:40 0.5
36 *2643:43 *2643:42 0.5
37 *2643:43 *2643:9 0.2825
38 *2643:42 *2643:41 10.80893
39 *2643:44 *2643:43 0.5
40 *2643:46 *2643:45 0.5
41 *2643:46 *2643:8 0.2825
42 *2643:45 *2643:44 0.4946429
43 *2643:25 *2643:24 0.2473214
44 *2643:26 *2643:25 0.2714286
45 *2643:26 *2643:23 1.628572

*END

*D_NET *2650 1.151993 //LENGTH 12.313 LUMPCC 0 DR

*CONN
*I *373:Q O *L 0 *C 34.792 8.952
*I *345:A4 I *L 0.569168 *C 32.056 7.280
*I *67:A4 I *L 0.552216 *C 38.104 7.736
*I *76:A I *L 0.582888 *C 36.920 5.912
*N *2650:4 *C 36.920 5.926
*N *2650:5 *C 36.920 6.824
*N *2650:6 *C 37.072 6.824
*N *2650:7 *C 37.072 7.723
*N *2650:8 *C 37.086 7.736
*N *2650:9 *C 37.666 7.736
*N *2650:10 *C 37.695 7.736
*N *2650:11 *C 37.680 7.750
*N *2650:12 *C 37.680 8.635
*N *2650:13 *C 37.666 8.648
*N *2650:14 *C 32.056 7.281
*N *2650:15 *C 32.056 8.331
*N *2650:16 *C 32.070 8.344
*N *2650:17 *C 33.880 8.344
*N *2650:18 *C 33.880 8.648
*N *2650:19 *C 34.640 8.648
*N *2650:20 *C 34.641 8.648
*N *2650:21 *C 34.792 8.648
*N *2650:22 *C 34.792 8.939

*CAP
0 *373:Q 0.001
1 *345:A4 0.001
2 *67:A4 0.031733
3 *76:A 0.001
4 *2650:4 0.04613225
5 *2650:5 0.05637723
6 *2650:6 0.07685746
7 *2650:7 0.06775601
8 *2650:8 0.03090502
9 *2650:9 0.03090502
10 *2650:10 0.03013887
11 *2650:11 0.04308927
12 *2650:12 0.0446834
13 *2650:13 0.1367299
14 *2650:14 0.05749931
15 *2650:15 0.05864284
16 *2650:16 0.0764576
17 *2650:17 0.08938028
18 *2650:18 0.04652448
19 *2650:19 0.1721108
20 *2650:20 0.005952599
21 *2650:21 0.02888615
22 *2650:22 0.01823195

*RES
0 *373:Q *2650:22 1
1 *2650:10 *67:A4 0.8180001
2 *2650:11 *2650:10 1
3 *2650:11 *2650:9 0.5
4 *2650:9 *2650:8 1.0375
5 *2650:7 *2650:6 1.604464
6 *2650:8 *2650:7 0.5
7 *2650:4 *76:A 1
8 *2650:12 *2650:11 1.580357
9 *2650:13 *2650:12 0.5
10 *2650:20 *2650:19 0.5
11 *2650:19 *2650:18 1.357143
12 *2650:19 *2650:13 5.404465
13 *2650:22 *2650:21 0.5187501
14 *2650:15 *2650:14 1.874107
15 *2650:16 *2650:15 0.5
16 *2650:14 *345:A4 1
17 *2650:21 *2650:20 0.2696429
18 *2650:5 *2650:4 1.604464
19 *2650:6 *2650:5 0.2714286
20 *2650:17 *2650:16 3.233036
21 *2650:18 *2650:17 0.5428572

*END

*D_NET *2654 1.140053 //LENGTH 10.734 LUMPCC 0 DR

*CONN
*I *361:Q O *L 0 *C 18.224 37.832
*I *349:A4 I *L 0.569168 *C 18.832 40.720
*I *89:A I *L 0.582888 *C 16.278 44.216
*I *61:A4 I *L 0.552216 *C 18.832 42.392
*N *2654:4 *C 18.832 42.391
*N *2654:5 *C 17.145 44.216
*N *2654:6 *C 17.160 44.203
*N *2654:7 *C 17.160 41.797
*N *2654:8 *C 17.174 41.784
*N *2654:9 *C 18.819 41.784
*N *2654:10 *C 18.832 41.784
*N *2654:11 *C 18.832 40.720
*N *2654:12 *C 18.832 38.758
*N *2654:13 *C 18.819 38.744
*N *2654:14 *C 18.238 38.744
*N *2654:15 *C 18.224 38.730
*N *2654:16 *C 18.224 37.846

*CAP
0 *361:Q 0.001
1 *349:A4 0.001
2 *89:A 0.0459042
3 *61:A4 0.001
4 *2654:4 0.03286795
5 *2654:5 0.04431008
6 *2654:6 0.1153996
7 *2654:7 0.1152147
8 *2654:8 0.08365916
9 *2654:9 0.08365916
10 *2654:10 0.1054458
11 *2654:11 0.211096
12 *2654:12 0.1408052
13 *2654:13 0.03094953
14 *2654:14 0.03094953
15 *2654:15 0.04896763
16 *2654:16 0.0478241

*RES
0 *361:Q *2654:16 1
1 *2654:4 *61:A4 1
2 *2654:11 *349:A4 1
3 *2654:11 *2654:10 1.9
4 *2654:12 *2654:11 3.504464
5 *2654:13 *2654:12 0.5
6 *2654:15 *2654:14 0.5
7 *2654:14 *2654:13 1.0375
8 *2654:16 *2654:15 1.580357
9 *2654:10 *2654:9 0.5
10 *2654:10 *2654:4 1.083929
11 *2654:9 *2654:8 2.9375
12 *2654:7 *2654:6 4.294643
13 *2654:8 *2654:7 0.5
14 *2654:5 *89:A 1.734
15 *2654:6 *2654:5 1

*END

*D_NET *2657 0.850605 //LENGTH 8.519 LUMPCC 0 DR

*CONN
*I *368:Q O *L 0 *C 18.376 31.144
*I *352:A4 I *L 0.569168 *C 20.352 30.688
*I *47:A6 I *L 0.609639 *C 21.720 29.776
*I *96:A I *L 0.582888 *C 22.012 32.694
*N *2657:4 *C 21.885 32.664
*N *2657:5 *C 21.872 32.651
*N *2657:6 *C 21.872 31.752
*N *2657:7 *C 21.720 31.752
*N *2657:8 *C 21.720 29.777
*N *2657:9 *C 21.720 31.144
*N *2657:10 *C 21.707 31.144
*N *2657:11 *C 20.338 30.688
*N *2657:12 *C 20.200 30.688
*N *2657:13 *C 20.200 31.131
*N *2657:14 *C 20.200 31.144
*N *2657:15 *C 20.200 31.448
*N *2657:16 *C 18.390 31.448
*N *2657:17 *C 18.376 31.434
*N *2657:18 *C 18.376 31.158

*CAP
0 *368:Q 0.001
1 *352:A4 0.001
2 *47:A6 0.001
3 *96:A 0.01309775
4 *2657:4 0.01150362
5 *2657:5 0.0692409
6 *2657:6 0.07797947
7 *2657:7 0.04839896
8 *2657:8 0.08384328
9 *2657:9 0.1262413
10 *2657:10 0.0659415
11 *2657:11 0.005723352
12 *2657:12 0.03587242
13 *2657:13 0.02544747
14 *2657:14 0.07773416
15 *2657:15 0.08872168
16 *2657:16 0.07514998
17 *2657:17 0.02192636
18 *2657:18 0.02078283

*RES
0 *368:Q *2657:18 1
1 *2657:4 *96:A 0.2133334
2 *2657:5 *2657:4 1
3 *2657:8 *47:A6 1
4 *2657:9 *2657:8 2.441072
5 *2657:9 *2657:7 1.085714
6 *2657:10 *2657:9 0.5
7 *2657:13 *2657:12 0.7901786
8 *2657:14 *2657:13 0.5
9 *2657:14 *2657:10 2.690179
10 *2657:11 *352:A4 1
11 *2657:17 *2657:16 0.5
12 *2657:16 *2657:15 3.233036
13 *2657:18 *2657:17 0.4946429
14 *2657:12 *2657:11 0.2473214
15 *2657:7 *2657:6 0.2714286
16 *2657:6 *2657:5 1.604464
17 *2657:15 *2657:14 0.5428572

*END

*D_NET *2662 0.3336036 //LENGTH 4.566 LUMPCC 0 DR

*CONN
*I *224:Q O *L 0 *C 13.816 35.704
*I *312:A1 I *L 0.588749 *C 12.600 32.816
*N *2662:2 *C 13.816 35.522
*N *2662:3 *C 12.600 32.830
*N *2662:4 *C 12.600 35.691
*N *2662:5 *C 12.614 35.704
*N *2662:6 *C 13.803 35.704
*N *2662:7 *C 13.816 35.692

*CAP
0 *224:Q 0.001
1 *312:A1 0.001
2 *2662:2 0.01266109
3 *2662:3 0.1031373
4 *2662:4 0.1042808
5 *2662:5 0.05178245
6 *2662:6 0.05178245
7 *2662:7 0.007959492

*RES
0 *224:Q *2662:7 1
1 *2662:3 *312:A1 1
2 *2662:4 *2662:3 5.108929
3 *2662:5 *2662:4 0.5
4 *2662:7 *2662:6 0.5
5 *2662:7 *2662:2 0.2825
6 *2662:6 *2662:5 2.123214

*END

*D_NET *2664 0.06036398 //LENGTH 0.439 LUMPCC 0 DR

*CONN
*I *504:Y O *L 0 *C 12.283 6.064
*I *232:D I *L 0.543569 *C 12.722 6.064

*CAP
0 *504:Y 0.03018199
1 *232:D 0.03018199

*RES
0 *504:Y *232:D 0.8780001

*END

*D_NET *2667 0.3840652 //LENGTH 5.471 LUMPCC 0 DR

*CONN
*I *311:Y O *L 0 *C 7.646 16.248
*I *231:D I *L 0.543569 *C 11.536 17.312
*N *2667:2 *C 7.888 16.066
*N *2667:3 *C 11.536 17.299
*N *2667:4 *C 11.536 16.262
*N *2667:5 *C 11.523 16.248
*N *2667:6 *C 7.902 16.248
*N *2667:7 *C 7.888 16.236
*N *2667:8 *C 7.873 16.248

*CAP
0 *311:Y 0.01700356
1 *231:D 0.001
2 *2667:2 0.0115985
3 *2667:3 0.03957629
4 *2667:4 0.04071982
5 *2667:5 0.1252661
6 *2667:6 0.1252661
7 *2667:7 0.008225336
8 *2667:8 0.01540944

*RES
0 *311:Y *2667:8 0.4540001
1 *2667:3 *231:D 1
2 *2667:4 *2667:3 1.851786
3 *2667:5 *2667:4 0.5
4 *2667:7 *2667:6 0.5
5 *2667:7 *2667:2 0.2825
6 *2667:6 *2667:5 6.466072
7 *2667:8 *2667:7 1

*END

*D_NET *2670 0.4277164 //LENGTH 5.954 LUMPCC 0 DR

*CONN
*I *104:Y O *L 0 *C 8.040 23.848
*I *226:D I *L 0.543569 *C 12.600 24.000
*N *2670:2 *C 12.600 24.014
*N *2670:3 *C 12.600 24.443
*N *2670:4 *C 12.587 24.456
*N *2670:5 *C 8.053 24.456
*N *2670:6 *C 8.040 24.443
*N *2670:7 *C 8.040 23.861

*CAP
0 *104:Y 0.001
1 *226:D 0.001
2 *2670:2 0.0191611
3 *2670:3 0.02030463
4 *2670:4 0.1602783
5 *2670:5 0.1602783
6 *2670:6 0.03341884
7 *2670:7 0.03227531

*RES
0 *104:Y *2670:7 1
1 *2670:2 *226:D 1
2 *2670:3 *2670:2 0.7660714
3 *2670:4 *2670:3 0.5
4 *2670:6 *2670:5 0.5
5 *2670:5 *2670:4 8.094644
6 *2670:7 *2670:6 1.0375

*END

*D_NET *2674 0.4676497 //LENGTH 4.351 LUMPCC 0 DR

*CONN
*I *74:Y O *L 0 *C 8.648 43.000
*I *230:D I *L 0.543569 *C 9.226 39.504
*N *2674:2 *C 8.815 39.504
*N *2674:3 *C 8.800 39.518
*N *2674:4 *C 8.800 41.480
*N *2674:5 *C 8.648 41.480
*N *2674:6 *C 8.648 42.986

*CAP
0 *74:Y 0.001
1 *230:D 0.02512215
2 *2674:2 0.02352802
3 *2674:3 0.1268453
4 *2674:4 0.1355896
5 *2674:5 0.08281863
6 *2674:6 0.07274589

*RES
0 *74:Y *2674:6 1
1 *2674:2 *230:D 0.8220001
2 *2674:3 *2674:2 1
3 *2674:6 *2674:5 2.690179
4 *2674:5 *2674:4 0.2714286
5 *2674:4 *2674:3 3.504465

*END

*D_NET *2677 0.6452032 //LENGTH 7.930 LUMPCC 0 DR

*CONN
*I *211:Y O *L 0 *C 10.624 43.000
*I *224:D I *L 0.543569 *C 9.864 36.160
*N *2677:2 *C 9.864 36.174
*N *2677:3 *C 9.864 38.123
*N *2677:4 *C 9.878 38.136
*N *2677:5 *C 10.611 38.136
*N *2677:6 *C 10.624 38.150
*N *2677:7 *C 10.624 42.986

*CAP
0 *211:Y 0.001
1 *224:D 0.001
2 *2677:2 0.08434766
3 *2677:3 0.08549119
4 *2677:4 0.03307002
5 *2677:5 0.03307002
6 *2677:6 0.2041839
7 *2677:7 0.2030404

*RES
0 *211:Y *2677:7 1
1 *2677:2 *224:D 1
2 *2677:3 *2677:2 3.480357
3 *2677:4 *2677:3 0.5
4 *2677:6 *2677:5 0.5
5 *2677:5 *2677:4 1.308929
6 *2677:7 *2677:6 8.637501

*END

*D_NET *2681 0.8467534 //LENGTH 9.355 LUMPCC 0 DR

*CONN
*I *156:Y O *L 0 *C 6.520 44.064
*I *157:A2 I *L 0.466516 *C 5.760 37.528
*I *166:A4 I *L 0.514778 *C 6.520 35.856
*N *2681:3 *C 6.520 35.857
*N *2681:4 *C 5.760 37.396
*N *2681:5 *C 5.760 37.516
*N *2681:6 *C 5.774 37.528
*N *2681:7 *C 6.506 37.528
*N *2681:8 *C 6.520 37.528
*N *2681:9 *C 6.520 44.050

*CAP
0 *156:Y 0.001
1 *157:A2 0.001
2 *166:A4 0.001
3 *2681:3 0.09052134
4 *2681:4 0.0117035
5 *2681:5 0.00565222
6 *2681:6 0.02534129
7 *2681:7 0.02682382
8 *2681:8 0.3891493
9 *2681:9 0.2945619

*RES
0 *156:Y *2681:9 1
1 *2681:9 *2681:8 11.64732
2 *2681:3 *166:A4 1
3 *2681:8 *2681:7 0.5
4 *2681:8 *2681:3 2.983929
5 *2681:7 *2681:6 1.308929
6 *2681:5 *157:A2 1
7 *2681:5 *2681:4 0.1991667
8 *2681:6 *2681:5 0.5

*END

*D_NET *2684 0.5177677 //LENGTH 6.406 LUMPCC 0 DR

*CONN
*I *155:Y O *L 0 *C 8.496 44.368
*I *156:A I *L 0.582888 *C 6.824 44.216
*I *74:A2 I *L 0.515513 *C 9.864 41.936
*I *74:A1 I *L 0.484201 *C 10.016 42.696
*N *2684:4 *C 10.015 42.696
*N *2684:5 *C 9.864 41.950
*N *2684:6 *C 9.864 42.696
*N *2684:7 *C 9.864 43.291
*N *2684:8 *C 9.851 43.304
*N *2684:9 *C 8.510 43.304
*N *2684:10 *C 8.496 43.318
*N *2684:11 *C 6.824 44.034
*N *2684:12 *C 6.824 44.204
*N *2684:13 *C 6.838 44.216
*N *2684:14 *C 8.482 44.216
*N *2684:15 *C 8.496 44.190
*N *2684:16 *C 8.496 44.355

*CAP
0 *155:Y 0.001
1 *156:A 0.001
2 *74:A2 0.001
3 *74:A1 0.001
4 *2684:4 0.004139752
5 *2684:5 0.03401318
6 *2684:6 0.07224784
7 *2684:7 0.02647074
8 *2684:8 0.05511561
9 *2684:9 0.05511561
10 *2684:10 0.05223801
11 *2684:11 0.01090677
12 *2684:12 0.006205173
13 *2684:13 0.06355046
14 *2684:14 0.06355046
15 *2684:15 0.06268731
16 *2684:16 0.00752673

*RES
0 *155:Y *2684:16 1
1 *2684:4 *74:A1 1
2 *2684:5 *74:A2 1
3 *2684:16 *2684:15 0.2758334
4 *2684:7 *2684:6 1.061607
5 *2684:8 *2684:7 0.5
6 *2684:10 *2684:9 0.5
7 *2684:9 *2684:8 2.394643
8 *2684:15 *2684:14 0.5
9 *2684:15 *2684:10 1.558036
10 *2684:14 *2684:13 2.9375
11 *2684:12 *156:A 1
12 *2684:12 *2684:11 0.2825
13 *2684:13 *2684:12 0.5
14 *2684:6 *2684:5 1.333036
15 *2684:6 *2684:4 0.2696429

*END

*D_NET *2686 0.6841348 //LENGTH 7.767 LUMPCC 0 DR

*CONN
*I *153:Y O *L 0 *C 5.456 41.024
*I *78:A2 I *L 0.515513 *C 7.584 38.592
*I *78:A1 I *L 0.484201 *C 7.629 39.352
*I *154:A I *L 0.582888 *C 6.824 42.696
*N *2686:4 *C 6.824 42.683
*N *2686:5 *C 7.584 39.352
*N *2686:6 *C 7.584 39.339
*N *2686:7 *C 7.584 38.605
*N *2686:8 *C 7.584 38.758
*N *2686:9 *C 7.571 38.744
*N *2686:10 *C 6.838 38.744
*N *2686:11 *C 6.824 38.758
*N *2686:12 *C 6.824 41.176
*N *2686:13 *C 6.811 41.176
*N *2686:14 *C 5.470 41.176
*N *2686:15 *C 5.456 41.163
*N *2686:16 *C 5.456 41.024

*CAP
0 *153:Y 0.001
1 *78:A2 0.001
2 *78:A1 0.008917997
3 *154:A 0.001
4 *2686:4 0.06625012
5 *2686:5 0.00732387
6 *2686:6 0.03790455
7 *2686:7 0.01173324
8 *2686:8 0.05237545
9 *2686:9 0.03052291
10 *2686:10 0.03052291
11 *2686:11 0.123239
12 *2686:12 0.1924116
13 *2686:13 0.04825019
14 *2686:14 0.04825019
15 *2686:15 0.01228815
16 *2686:16 0.01114462

*RES
0 *153:Y *2686:16 1
1 *2686:5 *78:A1 0.09166668
2 *2686:6 *2686:5 1
3 *2686:7 *78:A2 1
4 *2686:4 *154:A 1
5 *2686:8 *2686:7 0.255
6 *2686:8 *2686:6 1.0375
7 *2686:9 *2686:8 0.5
8 *2686:11 *2686:10 0.5
9 *2686:10 *2686:9 1.308929
10 *2686:12 *2686:11 4.318749
11 *2686:12 *2686:4 2.690179
12 *2686:13 *2686:12 0.5
13 *2686:15 *2686:14 0.5
14 *2686:14 *2686:13 2.394643
15 *2686:16 *2686:15 0.2325

*END

*D_NET *2688 1.270585 //LENGTH 13.337 LUMPCC 0 DR

*CONN
*I *151:Y O *L 0 *C 6.368 29.168
*I *265:A1 I *L 0.484201 *C 7.280 29.320
*I *265:A2 I *L 0.515513 *C 7.432 28.560
*I *152:A I *L 0.582888 *C 5.790 39.352
*N *2688:4 *C 6.201 39.352
*N *2688:5 *C 6.216 39.339
*N *2688:6 *C 6.216 38.440
*N *2688:7 *C 6.368 38.440
*N *2688:8 *C 7.432 28.574
*N *2688:9 *C 7.281 29.320
*N *2688:10 *C 7.432 29.306
*N *2688:11 *C 7.419 29.320
*N *2688:12 *C 6.381 29.320
*N *2688:13 *C 6.368 29.334
*N *2688:14 *C 6.368 29.181

*CAP
0 *151:Y 0.001
1 *265:A1 0.001
2 *265:A2 0.001
3 *152:A 0.02489394
4 *2688:4 0.02329981
5 *2688:5 0.05865665
6 *2688:6 0.06705612
7 *2688:7 0.4482392
8 *2688:8 0.03575325
9 *2688:9 0.004917972
10 *2688:10 0.04473732
11 *2688:11 0.05007266
12 *2688:12 0.05007266
13 *2688:13 0.4512314
14 *2688:14 0.008654045

*RES
0 *151:Y *2688:14 1
1 *2688:8 *265:A2 1
2 *2688:9 *265:A1 1
3 *2688:10 *2688:9 0.2696429
4 *2688:10 *2688:8 1.308929
5 *2688:11 *2688:10 0.5
6 *2688:13 *2688:12 0.5
7 *2688:13 *2688:7 16.26161
8 *2688:12 *2688:11 1.851786
9 *2688:14 *2688:13 0.255
10 *2688:4 *152:A 0.8220001
11 *2688:5 *2688:4 1
12 *2688:6 *2688:5 1.604464
13 *2688:7 *2688:6 0.2714286

*END

*D_NET *2690 0.3944868 //LENGTH 5.067 LUMPCC 0 DR

*CONN
*I *149:Y O *L 0 *C 6.976 25.824
*I *87:A1 I *L 0.484201 *C 7.128 27.496
*I *150:A I *L 0.582888 *C 5.456 27.496
*I *87:A2 I *L 0.515513 *C 7.280 28.256
*N *2690:4 *C 7.267 28.256
*N *2690:5 *C 7.128 28.256
*N *2690:6 *C 5.456 27.314
*N *2690:7 *C 5.456 27.484
*N *2690:8 *C 5.470 27.496
*N *2690:9 *C 7.115 27.496
*N *2690:10 *C 7.128 27.510
*N *2690:11 *C 6.976 27.496
*N *2690:12 *C 6.976 25.838

*CAP
0 *149:Y 0.001
1 *87:A1 0.001
2 *150:A 0.001
3 *87:A2 0.001
4 *2690:4 0.005167698
5 *2690:5 0.04380293
6 *2690:6 0.01125764
7 *2690:7 0.006556041
8 *2690:8 0.05746121
9 *2690:9 0.05746121
10 *2690:10 0.03823626
11 *2690:11 0.09034577
12 *2690:12 0.08019801

*RES
0 *149:Y *2690:12 1
1 *2690:4 *87:A2 1
2 *2690:10 *87:A1 1
3 *2690:10 *2690:9 0.5
4 *2690:10 *2690:5 1.333036
5 *2690:12 *2690:11 2.961607
6 *2690:9 *2690:8 2.9375
7 *2690:7 *150:A 1
8 *2690:7 *2690:6 0.2825
9 *2690:8 *2690:7 0.5
10 *2690:11 *2690:10 0.2714286
11 *2690:5 *2690:4 0.2473214

*END

*D_NET *2692 0.2886216 //LENGTH 3.885 LUMPCC 0 DR

*CONN
*I *146:Y O *L 0 *C 5.608 22.784
*I *104:A3 I *L 0.539281 *C 7.280 24.456
*I *147:A1 I *L 0.549073 *C 5.608 24.456
*N *2692:3 *C 7.294 24.456
*N *2692:4 *C 7.431 24.456
*N *2692:5 *C 7.419 24.456
*N *2692:6 *C 5.622 24.456
*N *2692:7 *C 5.608 24.443
*N *2692:8 *C 5.608 22.797

*CAP
0 *146:Y 0.001
1 *104:A3 0.001
2 *147:A1 0.001
3 *2692:3 0.005979399
4 *2692:4 0.007122931
5 *2692:5 0.06604137
6 *2692:6 0.06455884
7 *2692:7 0.06932876
8 *2692:8 0.07259032

*RES
0 *146:Y *2692:8 1
1 *2692:7 *2692:6 0.5
2 *2692:7 *147:A1 1
3 *2692:6 *2692:5 3.208929
4 *2692:4 *2692:3 0.2455357
5 *2692:5 *2692:4 0.5
6 *2692:3 *104:A3 1
7 *2692:8 *2692:7 2.9375

*END

*D_NET *2695 0.5289572 //LENGTH 6.577 LUMPCC 0 DR

*CONN
*I *143:Y O *L 0 *C 6.216 17.616
*I *144:A I *L 0.582888 *C 5.456 20.808
*I *310:A2 I *L 0.515513 *C 6.976 18.528
*I *310:A1 I *L 0.484201 *C 7.021 19.288
*N *2695:4 *C 6.976 19.288
*N *2695:5 *C 6.976 19.274
*N *2695:6 *C 6.976 18.541
*N *2695:7 *C 6.976 18.694
*N *2695:8 *C 6.963 18.680
*N *2695:9 *C 6.216 18.680
*N *2695:10 *C 5.456 20.794
*N *2695:11 *C 5.456 18.390
*N *2695:12 *C 5.470 18.376
*N *2695:13 *C 6.216 18.377
*N *2695:14 *C 6.216 18.363
*N *2695:15 *C 6.216 17.630

*CAP
0 *143:Y 0.001
1 *144:A 0.001
2 *310:A2 0.001
3 *310:A1 0.007946438
4 *2695:4 0.006352311
5 *2695:5 0.03289736
6 *2695:6 0.01017197
7 *2695:7 0.04580699
8 *2695:8 0.03045177
9 *2695:9 0.04280775
10 *2695:10 0.08892297
11 *2695:11 0.0900665
12 *2695:12 0.02654604
13 *2695:13 0.03712298
14 *2695:14 0.05400381
15 *2695:15 0.05286028

*RES
0 *143:Y *2695:15 1
1 *2695:4 *310:A1 0.09166667
2 *2695:5 *2695:4 1
3 *2695:6 *310:A2 1
4 *2695:7 *2695:6 0.255
5 *2695:7 *2695:5 1.0375
6 *2695:8 *2695:7 0.5
7 *2695:14 *2695:13 0.5
8 *2695:13 *2695:12 1.333036
9 *2695:13 *2695:9 0.5410715
10 *2695:15 *2695:14 1.308929
11 *2695:11 *2695:10 4.294643
12 *2695:12 *2695:11 0.5
13 *2695:10 *144:A 1
14 *2695:9 *2695:8 1.333036

*END

*D_NET *2698 0.2585407 //LENGTH 3.274 LUMPCC 0 DR

*CONN
*I *140:Y O *L 0 *C 6.216 13.968
*I *311:A3 I *L 0.539281 *C 6.824 15.640
*I *141:A1 I *L 0.549073 *C 5.638 14.449
*N *2698:3 *C 6.201 14.424
*N *2698:4 *C 6.824 15.627
*N *2698:5 *C 6.824 14.742
*N *2698:6 *C 6.811 14.728
*N *2698:7 *C 6.216 14.728
*N *2698:8 *C 6.216 14.425
*N *2698:9 *C 6.216 14.411
*N *2698:10 *C 6.216 13.982

*CAP
0 *140:Y 0.001
1 *311:A3 0.001
2 *141:A1 0.03159397
3 *2698:3 0.02999985
4 *2698:4 0.04103809
5 *2698:5 0.04218162
6 *2698:6 0.02076949
7 *2698:7 0.03291053
8 *2698:8 0.008582977
9 *2698:9 0.02450679
10 *2698:10 0.02495739

*RES
0 *140:Y *2698:10 1
1 *2698:9 *2698:8 0.5
2 *2698:9 *2698:3 1
3 *2698:8 *2698:7 0.5410715
4 *2698:5 *2698:4 1.580357
5 *2698:6 *2698:5 0.5
6 *2698:4 *311:A3 1
7 *2698:10 *2698:9 0.7660715
8 *2698:3 *141:A1 1.126
9 *2698:7 *2698:6 1.061607

*END

*D_NET *2701 0.4224769 //LENGTH 4.829 LUMPCC 0 DR

*CONN
*I *207:Y O *L 0 *C 10.031 5.760
*I *208:A I *L 0.582888 *C 8.800 5.912
*I *504:A2 I *L 0.515513 *C 11.080 5.152
*I *504:A1 I *L 0.484201 *C 10.898 5.912
*N *2701:4 *C 10.776 5.912
*N *2701:5 *C 10.776 5.760
*N *2701:6 *C 11.080 5.166
*N *2701:7 *C 11.080 5.595
*N *2701:8 *C 11.067 5.608
*N *2701:9 *C 10.334 5.608
*N *2701:10 *C 10.320 5.608
*N *2701:11 *C 10.320 5.748
*N *2701:12 *C 10.320 5.760
*N *2701:13 *C 8.800 5.899
*N *2701:14 *C 8.800 5.622
*N *2701:15 *C 8.814 5.608
*N *2701:16 *C 10.003 5.608
*N *2701:17 *C 10.016 5.608
*N *2701:18 *C 10.016 5.748
*N *2701:19 *C 10.031 5.760

*CAP
0 *207:Y 0.001
1 *208:A 0.001
2 *504:A2 0.001
3 *504:A1 0.01083734
4 *2701:4 0.02041156
5 *2701:5 0.0367795
6 *2701:6 0.02444376
7 *2701:7 0.02558729
8 *2701:8 0.03369525
9 *2701:9 0.03369525
10 *2701:10 0.01113788
11 *2701:11 0.01132279
12 *2701:12 0.04826801
13 *2701:13 0.01831877
14 *2701:14 0.01946231
15 *2701:15 0.04675153
16 *2701:16 0.04675153
17 *2701:17 0.009867235
18 *2701:18 0.008723704
19 *2701:19 0.01342323

*RES
0 *207:Y *2701:19 0.001
1 *2701:12 *2701:11 1
2 *2701:12 *2701:5 0.9120001
3 *2701:11 *2701:10 0.2325
4 *2701:10 *2701:9 0.5
5 *2701:9 *2701:8 1.308929
6 *2701:7 *2701:6 0.7660714
7 *2701:8 *2701:7 0.5
8 *2701:6 *504:A2 1
9 *2701:13 *208:A 1
10 *2701:14 *2701:13 0.4946429
11 *2701:15 *2701:14 0.5
12 *2701:17 *2701:16 0.5
13 *2701:16 *2701:15 2.123214
14 *2701:18 *2701:17 0.2325
15 *2701:5 *2701:4 0.304
16 *2701:4 *504:A1 0.244
17 *2701:19 *2701:18 1
18 *2701:19 *2701:12 0.5786

*END

*D_NET *2704 0.6252534 //LENGTH 6.441 LUMPCC 0 DR

*CONN
*I *157:Y O *L 0 *C 5.456 37.680
*I *213:A I *L 0.582888 *C 5.456 36.008
*I *166:A1 I *L 0.484201 *C 6.216 36.008
*I *166:A2 I *L 0.515513 *C 6.475 35.248
*I *214:A4 I *L 0.514778 *C 8.344 35.856
*N *2704:5 *C 8.344 35.843
*N *2704:6 *C 8.344 35.704
*N *2704:7 *C 8.331 35.704
*N *2704:8 *C 6.520 35.248
*N *2704:9 *C 6.520 35.262
*N *2704:10 *C 6.520 35.691
*N *2704:11 *C 6.520 35.704
*N *2704:12 *C 6.216 35.995
*N *2704:13 *C 6.216 35.718
*N *2704:14 *C 6.216 35.704
*N *2704:15 *C 5.470 35.704
*N *2704:16 *C 5.456 35.718
*N *2704:17 *C 5.456 36.008
*N *2704:18 *C 5.456 37.666

*CAP
0 *157:Y 0.001
1 *213:A 0.001
2 *166:A1 0.001
3 *166:A2 0.008985373
4 *214:A4 0.001
5 *2704:5 0.01008547
6 *2704:6 0.011229
7 *2704:7 0.08410549
8 *2704:8 0.007391246
9 *2704:9 0.03067679
10 *2704:10 0.03049188
11 *2704:11 0.09635671
12 *2704:12 0.0242169
13 *2704:13 0.02536043
14 *2704:14 0.03975775
15 *2704:15 0.02750653
16 *2704:16 0.01859603
17 *2704:17 0.1134344
18 *2704:18 0.0930594

*RES
0 *157:Y *2704:18 1
1 *2704:6 *2704:5 0.2325
2 *2704:7 *2704:6 0.5
3 *2704:5 *214:A4 1
4 *2704:10 *2704:9 0.7660714
5 *2704:11 *2704:10 0.5
6 *2704:11 *2704:7 3.233036
7 *2704:8 *166:A2 0.09166667
8 *2704:9 *2704:8 1
9 *2704:13 *2704:12 0.4946429
10 *2704:14 *2704:13 0.5
11 *2704:14 *2704:11 0.5428572
12 *2704:12 *166:A1 1
13 *2704:18 *2704:17 2.961607
14 *2704:17 *213:A 1
15 *2704:17 *2704:16 0.5187501
16 *2704:16 *2704:15 0.5
17 *2704:15 *2704:14 1.333036

*END

*D_NET *2707 0.6600992 //LENGTH 7.601 LUMPCC 0 DR

*CONN
*I *137:QN O *L 0 *C 13.664 37.984
*I *214:A3 I *L 0.539281 *C 8.648 35.704
*N *2707:2 *C 8.648 35.718
*N *2707:3 *C 8.648 36.299
*N *2707:4 *C 8.662 36.312
*N *2707:5 *C 13.651 36.312
*N *2707:6 *C 13.664 36.326
*N *2707:7 *C 13.664 37.983

*CAP
0 *137:QN 0.001
1 *214:A3 0.001
2 *2707:2 0.03238982
3 *2707:3 0.03353336
4 *2707:4 0.2250731
5 *2707:5 0.2250731
6 *2707:6 0.0715867
7 *2707:7 0.07044318

*RES
0 *137:QN *2707:7 1
1 *2707:2 *214:A3 1
2 *2707:3 *2707:2 1.0375
3 *2707:4 *2707:3 0.5
4 *2707:6 *2707:5 0.5
5 *2707:5 *2707:4 8.908929
6 *2707:7 *2707:6 2.959821

*END

*D_NET *2708 0.3244028 //LENGTH 3.345 LUMPCC 0 DR

*CONN
*I *136:QN O *L 0 *C 7.432 11.232
*I *212:A2 I *L 0.537813 *C 8.496 9.256
*N *2708:2 *C 8.496 9.270
*N *2708:3 *C 8.496 9.851
*N *2708:4 *C 8.482 9.864
*N *2708:5 *C 7.446 9.864
*N *2708:6 *C 7.432 9.878
*N *2708:7 *C 7.432 11.231

*CAP
0 *136:QN 0.001
1 *212:A2 0.001
2 *2708:2 0.03376566
3 *2708:3 0.0349092
4 *2708:4 0.04289605
5 *2708:5 0.04289605
6 *2708:6 0.0845397
7 *2708:7 0.08339617

*RES
0 *136:QN *2708:7 1
1 *2708:2 *212:A2 1
2 *2708:3 *2708:2 1.0375
3 *2708:4 *2708:3 0.5
4 *2708:6 *2708:5 0.5
5 *2708:5 *2708:4 1.851786
6 *2708:7 *2708:6 2.416964

*END

*D_NET *2710 1.25065 //LENGTH 13.532 LUMPCC 0 DR

*CONN
*I *235:Q O *L 0 *C 9.256 31.144
*I *166:A3 I *L 0.539281 *C 6.824 35.704
*I *157:A1 I *L 0.549073 *C 5.638 37.857
*I *159:A3 I *L 0.584801 *C 8.192 37.680
*N *2710:4 *C 8.192 37.694
*N *2710:5 *C 8.192 37.832
*N *2710:6 *C 6.216 37.650
*N *2710:7 *C 6.201 37.832
*N *2710:8 *C 6.216 37.820
*N *2710:9 *C 6.230 37.832
*N *2710:10 *C 7.875 37.832
*N *2710:11 *C 7.888 37.832
*N *2710:12 *C 6.824 35.718
*N *2710:13 *C 6.824 36.299
*N *2710:14 *C 6.838 36.312
*N *2710:15 *C 7.875 36.312
*N *2710:16 *C 7.888 36.312
*N *2710:17 *C 7.888 32.373
*N *2710:18 *C 7.902 32.360
*N *2710:19 *C 9.242 32.360
*N *2710:20 *C 9.256 32.346
*N *2710:21 *C 9.256 31.158

*CAP
0 *235:Q 0.001
1 *166:A3 0.001
2 *157:A1 0.03151678
3 *159:A3 0.001
4 *2710:4 0.01084391
5 *2710:5 0.02565962
6 *2710:6 0.01877508
7 *2710:7 0.02992266
8 *2710:8 0.01540192
9 *2710:9 0.05700883
10 *2710:10 0.05700883
11 *2710:11 0.1100325
12 *2710:12 0.03357409
13 *2710:13 0.03471762
14 *2710:14 0.05096923
15 *2710:15 0.05096923
16 *2710:16 0.2964679
17 *2710:17 0.1965496
18 *2710:18 0.0564063
19 *2710:19 0.0564063
20 *2710:20 0.05828167
21 *2710:21 0.05713813

*RES
0 *235:Q *2710:21 1
1 *2710:4 *159:A3 1
2 *2710:17 *2710:16 7.033036
3 *2710:18 *2710:17 0.5
4 *2710:20 *2710:19 0.5
5 *2710:19 *2710:18 2.394643
6 *2710:21 *2710:20 2.123214
7 *2710:16 *2710:15 0.5
8 *2710:16 *2710:11 2.714286
9 *2710:15 *2710:14 1.851786
10 *2710:13 *2710:12 1.0375
11 *2710:14 *2710:13 0.5
12 *2710:12 *166:A3 1
13 *2710:11 *2710:10 0.5
14 *2710:11 *2710:5 0.5428572
15 *2710:10 *2710:9 2.9375
16 *2710:8 *2710:7 1
17 *2710:8 *2710:6 0.2825
18 *2710:9 *2710:8 0.5
19 *2710:7 *157:A1 1.126
20 *2710:5 *2710:4 0.2473214

*END

*D_NET *2714 0.8011342 //LENGTH 8.595 LUMPCC 0 DR

*CONN
*I *233:Q O *L 0 *C 13.208 27.800
*I *149:A2 I *L 0.466516 *C 7.278 26.004
*I *87:A4 I *L 0.514778 *C 7.432 27.648
*N *2714:3 *C 7.432 27.635
*N *2714:4 *C 7.420 25.976
*N *2714:5 *C 7.432 25.989
*N *2714:6 *C 7.432 27.192
*N *2714:7 *C 7.446 27.192
*N *2714:8 *C 13.195 27.192
*N *2714:9 *C 13.208 27.206
*N *2714:10 *C 13.208 27.787

*CAP
0 *233:Q 0.001
1 *149:A2 0.01074992
2 *87:A4 0.001
3 *2714:3 0.02129196
4 *2714:4 0.009155797
5 *2714:5 0.06059722
6 *2714:6 0.08462685
7 *2714:7 0.2827547
8 *2714:8 0.2827547
9 *2714:9 0.02417328
10 *2714:10 0.02302974

*RES
0 *233:Q *2714:10 1
1 *2714:3 *87:A4 1
2 *2714:6 *2714:5 2.147322
3 *2714:6 *2714:3 0.7901788
4 *2714:7 *2714:6 0.5
5 *2714:9 *2714:8 0.5
6 *2714:8 *2714:7 10.26607
7 *2714:10 *2714:9 1.0375
8 *2714:4 *149:A2 0.2366667
9 *2714:5 *2714:4 1

*END

*D_NET *2718 0.4904753 //LENGTH 6.044 LUMPCC 0 DR

*CONN
*I *231:Q O *L 0 *C 7.584 17.768
*I *311:A4 I *L 0.514778 *C 6.520 15.792
*I *141:A2 I *L 0.466516 *C 5.760 14.120
*N *2718:3 *C 5.760 14.121
*N *2718:4 *C 5.760 15.627
*N *2718:5 *C 5.774 15.640
*N *2718:6 *C 6.520 15.780
*N *2718:7 *C 6.520 15.640
*N *2718:8 *C 6.520 15.640
*N *2718:9 *C 7.571 15.640
*N *2718:10 *C 7.584 15.654
*N *2718:11 *C 7.584 17.755

*CAP
0 *231:Q 0.001
1 *311:A4 0.001
2 *141:A2 0.001
3 *2718:3 0.08083154
4 *2718:4 0.08184222
5 *2718:5 0.02605463
6 *2718:6 0.009613189
7 *2718:7 0.01075672
8 *2718:8 0.06263232
9 *2718:9 0.03479866
10 *2718:10 0.0910448
11 *2718:11 0.08990128

*RES
0 *231:Q *2718:11 1
1 *2718:10 *2718:9 0.5
2 *2718:9 *2718:8 1.875893
3 *2718:11 *2718:10 3.751786
4 *2718:7 *2718:6 0.2325
5 *2718:8 *2718:7 0.5
6 *2718:8 *2718:5 1.333036
7 *2718:6 *311:A4 1
8 *2718:4 *2718:3 2.688393
9 *2718:5 *2718:4 0.5
10 *2718:3 *141:A2 1

*END

*D_NET *2722 1.160844 //LENGTH 12.106 LUMPCC 0 DR

*CONN
*I *136:Q O *L 0 *C 7.584 11.080
*I *139:A2 I *L 0.578798 *C 10.472 9.256
*I *207:A2 I *L 0.466516 *C 10.318 5.940
*I *504:A4 I *L 0.514778 *C 11.232 5.760
*I *203:A2 I *L 0.55521 *C 11.536 9.104
*N *2722:5 *C 11.536 9.117
*N *2722:6 *C 11.536 9.560
*N *2722:7 *C 11.232 5.774
*N *2722:8 *C 10.460 5.912
*N *2722:9 *C 10.472 5.926
*N *2722:10 *C 10.472 6.203
*N *2722:11 *C 10.486 6.216
*N *2722:12 *C 11.219 6.216
*N *2722:13 *C 11.232 6.216
*N *2722:14 *C 11.232 9.560
*N *2722:15 *C 11.219 9.560
*N *2722:16 *C 10.472 9.270
*N *2722:17 *C 10.472 9.546
*N *2722:18 *C 10.472 9.560
*N *2722:19 *C 7.598 9.560
*N *2722:20 *C 7.584 9.574
*N *2722:21 *C 7.584 11.067

*CAP
0 *136:Q 0.001
1 *139:A2 0.001
2 *207:A2 0.01525543
3 *504:A4 0.001
4 *203:A2 0.001
5 *2722:5 0.02735803
6 *2722:6 0.04287193
7 *2722:7 0.02681305
8 *2722:8 0.01366131
9 *2722:9 0.01644669
10 *2722:10 0.01626178
11 *2722:11 0.03738185
12 *2722:12 0.03738185
13 *2722:13 0.2080898
14 *2722:14 0.1909455
15 *2722:15 0.03369015
16 *2722:16 0.0231652
17 *2722:17 0.02430873
18 *2722:18 0.1578222
19 *2722:19 0.122353
20 *2722:20 0.0820904
21 *2722:21 0.08094688

*RES
0 *136:Q *2722:21 1
1 *2722:5 *203:A2 1
2 *2722:7 *504:A4 1
3 *2722:14 *2722:13 5.971429
4 *2722:14 *2722:6 0.5428572
5 *2722:15 *2722:14 0.5
6 *2722:17 *2722:16 0.4946429
7 *2722:18 *2722:17 0.5
8 *2722:18 *2722:15 1.333036
9 *2722:16 *139:A2 1
10 *2722:13 *2722:12 0.5
11 *2722:13 *2722:7 0.7901786
12 *2722:12 *2722:11 1.308929
13 *2722:10 *2722:9 0.4946429
14 *2722:11 *2722:10 0.5
15 *2722:8 *207:A2 0.2366667
16 *2722:9 *2722:8 1
17 *2722:20 *2722:19 0.5
18 *2722:19 *2722:18 5.133036
19 *2722:21 *2722:20 2.666071
20 *2722:6 *2722:5 0.7901786

*END

*D_NET *2727 0.4969505 //LENGTH 5.959 LUMPCC 0 DR

*CONN
*I *236:Y O *L 0 *C 28.712 41.328
*I *241:D I *L 0.543562 *C 32.208 39.504
*N *2727:2 *C 32.208 39.492
*N *2727:3 *C 32.208 39.352
*N *2727:4 *C 32.195 39.352
*N *2727:5 *C 28.726 39.352
*N *2727:6 *C 28.712 39.366
*N *2727:7 *C 28.712 41.315

*CAP
0 *236:Y 0.001
1 *241:D 0.001
2 *2727:2 0.007509105
3 *2727:3 0.008652636
4 *2727:4 0.1467495
5 *2727:5 0.1467495
6 *2727:6 0.09321663
7 *2727:7 0.09207311

*RES
0 *236:Y *2727:7 1
1 *2727:2 *241:D 1
2 *2727:3 *2727:2 0.2325
3 *2727:4 *2727:3 0.5
4 *2727:6 *2727:5 0.5
5 *2727:5 *2727:4 6.194643
6 *2727:7 *2727:6 3.480358

*END

*D_NET *2730 1.044668 //LENGTH 11.401 LUMPCC 0 DR

*CONN
*I *321:Y O *L 0 *C 42.240 11.232
*I *247:D I *L 0.543562 *C 33.880 13.968
*N *2730:2 *C 33.880 13.955
*N *2730:3 *C 33.880 12.309
*N *2730:4 *C 33.894 12.296
*N *2730:5 *C 42.227 12.296
*N *2730:6 *C 42.240 12.283
*N *2730:7 *C 42.240 11.233

*CAP
0 *321:Y 0.001
1 *247:D 0.001
2 *2730:2 0.08207282
3 *2730:3 0.08321635
4 *2730:4 0.3854554
5 *2730:5 0.3854554
6 *2730:6 0.05380576
7 *2730:7 0.05266223

*RES
0 *321:Y *2730:7 1
1 *2730:2 *247:D 1
2 *2730:3 *2730:2 2.9375
3 *2730:4 *2730:3 0.5
4 *2730:6 *2730:5 0.5
5 *2730:5 *2730:4 14.88036
6 *2730:7 *2730:6 1.874107

*END

*D_NET *2735 0.4561265 //LENGTH 5.204 LUMPCC 0 DR

*CONN
*I *281:Y O *L 0 *C 31.752 30.992
*I *238:D I *L 0.543562 *C 27.192 30.688
*N *2735:2 *C 27.192 30.688
*N *2735:3 *C 27.192 30.828
*N *2735:4 *C 27.206 30.840
*N *2735:5 *C 31.739 30.840
*N *2735:6 *C 31.752 30.840
*N *2735:7 *C 31.752 30.980

*CAP
0 *281:Y 0.001
1 *238:D 0.001
2 *2735:2 0.01151135
3 *2735:3 0.01265488
4 *2735:4 0.2042172
5 *2735:5 0.2042172
6 *2735:6 0.01133465
7 *2735:7 0.01019112

*RES
0 *281:Y *2735:7 1
1 *2735:2 *238:D 1
2 *2735:3 *2735:2 0.2325
3 *2735:4 *2735:3 0.5
4 *2735:6 *2735:5 0.5
5 *2735:5 *2735:4 8.094644
6 *2735:7 *2735:6 0.2325001

*END

*D_NET *2739 0.429765 //LENGTH 5.230 LUMPCC 0 DR

*CONN
*I *255:Y O *L 0 *C 40.112 18.528
*I *256:A3 I *L 0.584801 *C 43.760 17.616
*N *2739:2 *C 43.760 17.604
*N *2739:3 *C 43.760 17.464
*N *2739:4 *C 43.747 17.464
*N *2739:5 *C 40.733 17.464
*N *2739:6 *C 40.720 17.477
*N *2739:7 *C 40.720 18.528
*N *2739:8 *C 40.113 18.528

*CAP
0 *255:Y 0.001
1 *256:A3 0.001
2 *2739:2 0.01333073
3 *2739:3 0.01447426
4 *2739:4 0.1240499
5 *2739:5 0.1240499
6 *2739:6 0.05275785
7 *2739:7 0.07802496
8 *2739:8 0.02107746

*RES
0 *255:Y *2739:8 1
1 *2739:2 *256:A3 1
2 *2739:3 *2739:2 0.2325
3 *2739:4 *2739:3 0.5
4 *2739:6 *2739:5 0.5
5 *2739:5 *2739:4 5.380358
6 *2739:8 *2739:7 1.083929
7 *2739:7 *2739:6 1.875893

*END

*D_NET *2743 1.972466 //LENGTH 27.862 LUMPCC 0 DR

*CONN
*I *262:Y O *L 0 *C 36.160 41.024
*I *263:A2 I *L 0.466516 *C 44.067 27.524
*I *266:A1 I *L 0.582918 *C 45.279 24.152
*N *2743:3 *C 43.730 27.496
*N *2743:4 *C 45.218 24.152
*N *2743:5 *C 45.218 24.152
*N *2743:6 *C 45.280 25.355
*N *2743:7 *C 45.267 25.368
*N *2743:8 *C 43.925 25.368
*N *2743:9 *C 43.912 25.382
*N *2743:10 *C 43.925 27.496
*N *2743:11 *C 43.912 27.483
*N *2743:12 *C 43.900 27.496
*N *2743:13 *C 43.912 27.510
*N *2743:14 *C 43.912 35.387
*N *2743:15 *C 43.899 35.400
*N *2743:16 *C 36.022 35.400
*N *2743:17 *C 36.008 35.413
*N *2743:18 *C 36.008 40.555
*N *2743:19 *C 36.008 40.568
*N *2743:20 *C 36.148 40.568
*N *2743:21 *C 36.160 40.582
*N *2743:22 *C 36.160 41.011

*CAP
0 *262:Y 0.001
1 *263:A2 0.01376418
2 *266:A1 0.01499859
3 *2743:3 0.01234744
4 *2743:4 0.01021621
5 *2743:5 0.07401049
6 *2743:6 0.05989233
7 *2743:7 0.05054318
8 *2743:8 0.05054318
9 *2743:9 0.1148181
10 *2743:10 0.01217005
11 *2743:11 0.113224
12 *2743:12 0.008789476
13 *2743:13 0.2556788
14 *2743:14 0.255679
15 *2743:15 0.2451506
16 *2743:16 0.2451506
17 *2743:17 0.1754631
18 *2743:18 0.1754629
19 *2743:19 0.007592894
20 *2743:20 0.007592793
21 *2743:21 0.034761
22 *2743:22 0.03361747

*RES
0 *262:Y *2743:22 1
1 *2743:10 *263:A2 0.2366667
2 *2743:11 *2743:10 1
3 *2743:11 *2743:9 3.751786
4 *2743:9 *2743:8 0.5
5 *2743:8 *2743:7 2.394643
6 *2743:6 *2743:5 2.147322
7 *2743:7 *2743:6 0.5
8 *2743:4 *266:A1 0.1916667
9 *2743:5 *2743:4 0.5
10 *2743:12 *2743:11 0.5
11 *2743:12 *2743:3 0.2825
12 *2743:13 *2743:12 0.5
13 *2743:14 *2743:13 14.06607
14 *2743:15 *2743:14 0.5
15 *2743:17 *2743:16 0.5
16 *2743:16 *2743:15 14.06607
17 *2743:19 *2743:18 0.5
18 *2743:18 *2743:17 9.180358
19 *2743:21 *2743:20 0.5
20 *2743:20 *2743:19 0.2325
21 *2743:22 *2743:21 0.7660714

*END

*D_NET *2749 0.357875 //LENGTH 3.953 LUMPCC 0 DR

*CONN
*I *279:Y O *L 0 *C 33.424 32.968
*I *281:A1 I *L 0.549073 *C 31.600 31.144
*N *2749:2 *C 31.600 31.145
*N *2749:3 *C 31.600 32.043
*N *2749:4 *C 31.614 32.056
*N *2749:5 *C 33.410 32.056
*N *2749:6 *C 33.424 32.070
*N *2749:7 *C 33.424 32.955

*CAP
0 *279:Y 0.001
1 *281:A1 0.001
2 *2749:2 0.04394779
3 *2749:3 0.04509132
4 *2749:4 0.07911323
5 *2749:5 0.07911323
6 *2749:6 0.05487649
7 *2749:7 0.05373295

*RES
0 *279:Y *2749:7 1
1 *2749:2 *281:A1 1
2 *2749:3 *2749:2 1.602679
3 *2749:4 *2749:3 0.5
4 *2749:6 *2749:5 0.5
5 *2749:5 *2749:4 3.208929
6 *2749:7 *2749:6 1.580357

*END

*D_NET *2753 0.987437 //LENGTH 8.967 LUMPCC 0 DR

*CONN
*I *278:Y O *L 0 *C 32.248 36.008
*I *279:A6 I *L 0.639573 *C 32.816 32.208
*I *284:A4 I *L 0.552216 *C 33.851 29.158
*N *2753:3 *C 33.880 29.168
*N *2753:4 *C 33.880 29.181
*N *2753:5 *C 33.880 31.739
*N *2753:6 *C 33.867 31.752
*N *2753:7 *C 32.830 31.752
*N *2753:8 *C 32.816 31.766
*N *2753:9 *C 32.816 32.208
*N *2753:10 *C 32.816 35.995
*N *2753:11 *C 32.801 36.008

*CAP
0 *278:Y 0.0307087
1 *279:A6 0.001
2 *284:A4 0.007728091
3 *2753:3 0.006133964
4 *2753:4 0.1545096
5 *2753:5 0.1543247
6 *2753:6 0.04253814
7 *2753:7 0.04253814
8 *2753:8 0.02946217
9 *2753:9 0.2596458
10 *2753:10 0.2297331
11 *2753:11 0.02911457

*RES
0 *278:Y *2753:11 1.106
1 *2753:9 *279:A6 1
2 *2753:9 *2753:8 0.7901787
3 *2753:8 *2753:7 0.5
4 *2753:7 *2753:6 1.851786
5 *2753:5 *2753:4 4.566072
6 *2753:6 *2753:5 0.5
7 *2753:3 *284:A4 0.09166667
8 *2753:4 *2753:3 1
9 *2753:11 *2753:10 1
10 *2753:10 *2753:9 6.761608

*END

*D_NET *2757 0.4789045 //LENGTH 6.313 LUMPCC 0 DR

*CONN
*I *270:Y O *L 0 *C 43.456 24.304
*I *206:A5 I *L 0.532504 *C 44.824 22.784
*I *290:A2 I *L 0.537813 *C 47.408 24.152
*N *2757:3 *C 47.408 23.970
*N *2757:4 *C 47.408 24.140
*N *2757:5 *C 47.395 24.152
*N *2757:6 *C 44.824 22.797
*N *2757:7 *C 44.824 22.936
*N *2757:8 *C 44.672 22.936
*N *2757:9 *C 44.672 24.139
*N *2757:10 *C 44.672 24.152
*N *2757:11 *C 43.470 24.152
*N *2757:12 *C 43.456 24.152
*N *2757:13 *C 43.456 24.292

*CAP
0 *270:Y 0.001
1 *206:A5 0.001
2 *290:A2 0.001
3 *2757:3 0.01265672
4 *2757:4 0.007955117
5 *2757:5 0.08765789
6 *2757:6 0.01285707
7 *2757:7 0.02319344
8 *2757:8 0.07298455
9 *2757:9 0.06379171
10 *2757:10 0.1331532
11 *2757:11 0.0437163
12 *2757:12 0.009540986
13 *2757:13 0.008397454

*RES
0 *270:Y *2757:13 1
1 *2757:4 *290:A2 1
2 *2757:4 *2757:3 0.2825
3 *2757:5 *2757:4 0.5
4 *2757:9 *2757:8 2.147322
5 *2757:10 *2757:9 0.5
6 *2757:10 *2757:5 4.861607
7 *2757:6 *206:A5 1
8 *2757:12 *2757:11 0.5
9 *2757:11 *2757:10 2.147322
10 *2757:13 *2757:12 0.2325
11 *2757:8 *2757:7 0.2714286
12 *2757:7 *2757:6 0.2473215

*END

*D_NET *2761 0.3145311 //LENGTH 3.631 LUMPCC 0 DR

*CONN
*I *288:Y O *L 0 *C 42.210 19.136
*I *293:A1 I *L 0.610599 *C 40.416 20.808
*N *2761:2 *C 40.416 20.794
*N *2761:3 *C 40.416 19.149
*N *2761:4 *C 40.431 19.136

*CAP
0 *288:Y 0.08278619
1 *293:A1 0.001
2 *2761:2 0.07411222
3 *2761:3 0.07544066
4 *2761:4 0.08119207

*RES
0 *288:Y *2761:4 3.558
1 *2761:2 *293:A1 1
2 *2761:4 *2761:3 1
3 *2761:3 *2761:2 2.9375

*END

*D_NET *2764 0.9625585 //LENGTH 10.967 LUMPCC 0 DR

*CONN
*I *266:Y O *L 0 *C 46.344 23.848
*I *268:A1 I *L 0.549073 *C 44.523 21.140
*I *296:A1 I *L 0.666174 *C 45.736 17.616
*I *298:A1 I *L 0.545966 *C 46.800 17.505
*N *2764:4 *C 46.800 17.616
*N *2764:5 *C 46.207 17.616
*N *2764:6 *C 46.192 17.630
*N *2764:7 *C 46.192 17.920
*N *2764:8 *C 45.736 17.617
*N *2764:9 *C 45.736 17.920
*N *2764:10 *C 46.040 17.920
*N *2764:11 *C 46.040 21.416
*N *2764:12 *C 44.660 21.112
*N *2764:13 *C 44.672 21.126
*N *2764:14 *C 44.672 21.402
*N *2764:15 *C 44.686 21.416
*N *2764:16 *C 46.331 21.416
*N *2764:17 *C 46.344 21.430
*N *2764:18 *C 46.344 23.835

*CAP
0 *266:Y 0.001
1 *268:A1 0.01160494
2 *296:A1 0.001
3 *298:A1 0.009633601
4 *2764:4 0.04887785
5 *2764:5 0.03765012
6 *2764:6 0.02130522
7 *2764:7 0.02937667
8 *2764:8 0.0120663
9 *2764:9 0.02693592
10 *2764:10 0.1950892
11 *2764:11 0.1889611
12 *2764:12 0.01001081
13 *2764:13 0.0173411
14 *2764:14 0.01715619
15 *2764:15 0.06032887
16 *2764:16 0.06032887
17 *2764:17 0.1136658
18 *2764:18 0.100226

*RES
0 *266:Y *2764:18 1
1 *2764:18 *2764:17 4.294643
2 *2764:5 *2764:4 1.186
3 *2764:6 *2764:5 1
4 *2764:8 *296:A1 1
5 *2764:17 *2764:16 0.5
6 *2764:17 *2764:11 0.5428572
7 *2764:16 *2764:15 2.9375
8 *2764:14 *2764:13 0.4946429
9 *2764:15 *2764:14 0.5
10 *2764:12 *268:A1 0.2283333
11 *2764:13 *2764:12 1
12 *2764:4 *298:A1 0.272
13 *2764:9 *2764:8 0.5410715
14 *2764:10 *2764:9 0.5428572
15 *2764:10 *2764:7 0.2714286
16 *2764:7 *2764:6 0.51875
17 *2764:11 *2764:10 6.242857

*END

*D_NET *2768 0.3615374 //LENGTH 4.262 LUMPCC 0 DR

*CONN
*I *300:Y O *L 0 *C 46.787 12.818
*I *301:A3 I *L 0.532459 *C 43.152 13.208
*N *2768:2 *C 46.648 12.722
*N *2768:3 *C 43.152 13.195
*N *2768:4 *C 43.152 12.918
*N *2768:5 *C 43.166 12.904
*N *2768:6 *C 46.635 12.904
*N *2768:7 *C 46.648 12.892

*CAP
0 *300:Y 0.001
1 *301:A3 0.001
2 *2768:2 0.01398607
3 *2768:3 0.01605515
4 *2768:4 0.01719869
5 *2768:5 0.1514864
6 *2768:6 0.1514864
7 *2768:7 0.00932478

*RES
0 *300:Y *2768:7 1
1 *2768:3 *301:A3 1
2 *2768:4 *2768:3 0.4946429
3 *2768:5 *2768:4 0.5
4 *2768:7 *2768:6 0.5
5 *2768:7 *2768:2 0.2825
6 *2768:6 *2768:5 6.194643

*END

*D_NET *2772 0.8848891 //LENGTH 11.077 LUMPCC 0 DR

*CONN
*I *302:Y O *L 0 *C 45.280 15.488
*I *507:A3 I *L 0.539281 *C 44.064 11.080
*I *321:A1 I *L 0.514394 *C 40.840 10.928
*I *507:A1 I *L 0.484201 *C 44.672 10.776
*N *2772:4 *C 44.672 10.790
*N *2772:5 *C 44.672 11.067
*N *2772:6 *C 44.660 11.080
*N *2772:7 *C 40.583 10.928
*N *2772:8 *C 40.568 10.928
*N *2772:9 *C 40.568 11.068
*N *2772:10 *C 40.582 11.080
*N *2772:11 *C 44.064 10.898
*N *2772:12 *C 44.064 11.068
*N *2772:13 *C 44.064 11.080
*N *2772:14 *C 44.532 11.080
*N *2772:15 *C 44.520 11.094
*N *2772:16 *C 44.520 15.323
*N *2772:17 *C 44.534 15.336
*N *2772:18 *C 45.267 15.336
*N *2772:19 *C 45.280 15.336
*N *2772:20 *C 45.280 15.476

*CAP
0 *302:Y 0.001
1 *507:A3 0.001
2 *321:A1 0.02034483
3 *507:A1 0.001
4 *2772:4 0.01581384
5 *2772:5 0.01695737
6 *2772:6 0.008870694
7 *2772:7 0.0187507
8 *2772:8 0.00876142
9 *2772:9 0.008576512
10 *2772:10 0.1493344
11 *2772:11 0.01400457
12 *2772:12 0.009302968
13 *2772:13 0.1698735
14 *2772:14 0.02940985
15 *2772:15 0.1614524
16 *2772:16 0.1614524
17 *2772:17 0.03322157
18 *2772:18 0.03322146
19 *2772:19 0.01184217
20 *2772:20 0.01069863

*RES
0 *302:Y *2772:20 1
1 *2772:5 *2772:4 0.4946429
2 *2772:6 *2772:5 0.5
3 *2772:4 *507:A1 1
4 *2772:14 *2772:13 0.8366072
5 *2772:14 *2772:6 0.2116667
6 *2772:15 *2772:14 0.5
7 *2772:17 *2772:16 0.5
8 *2772:16 *2772:15 7.551786
9 *2772:19 *2772:18 0.5
10 *2772:18 *2772:17 1.308929
11 *2772:20 *2772:19 0.2325
12 *2772:12 *507:A3 1
13 *2772:12 *2772:11 0.2825
14 *2772:13 *2772:12 0.5
15 *2772:13 *2772:10 6.21875
16 *2772:9 *2772:8 0.2325
17 *2772:10 *2772:9 0.5
18 *2772:7 *321:A1 0.5140001
19 *2772:8 *2772:7 1

*END

*D_NET *2776 0.371457 //LENGTH 4.105 LUMPCC 0 DR

*CONN
*I *317:Y O *L 0 *C 23.696 42.544
*I *318:A2 I *L 0.466516 *C 25.824 44.216
*N *2776:2 *C 25.824 44.215
*N *2776:3 *C 25.824 43.014
*N *2776:4 *C 25.811 43.000
*N *2776:5 *C 23.710 43.000
*N *2776:6 *C 23.696 42.986
*N *2776:7 *C 23.696 42.558

*CAP
0 *317:Y 0.001
1 *318:A2 0.001
2 *2776:2 0.06985337
3 *2776:3 0.07086404
4 *2776:4 0.0883671
5 *2776:5 0.0883671
6 *2776:6 0.02657448
7 *2776:7 0.02543095

*RES
0 *317:Y *2776:7 1
1 *2776:2 *318:A2 1
2 *2776:3 *2776:2 2.145536
3 *2776:4 *2776:3 0.5
4 *2776:6 *2776:5 0.5
5 *2776:5 *2776:4 3.751786
6 *2776:7 *2776:6 0.7660714

*END

*D_NET *2779 0.9440956 //LENGTH 10.309 LUMPCC 0 DR

*CONN
*I *259:Y O *L 0 *C 35.248 40.720
*I *261:A2 I *L 0.509119 *C 33.424 42.392
*I *313:A1 I *L 0.526794 *C 31.600 44.368
*I *319:A1 I *L 0.529859 *C 32.208 41.176
*N *2779:4 *C 32.208 41.163
*N *2779:5 *C 32.208 40.886
*N *2779:6 *C 32.221 40.872
*N *2779:7 *C 31.600 44.355
*N *2779:8 *C 31.600 43.925
*N *2779:9 *C 31.614 43.912
*N *2779:10 *C 32.803 43.912
*N *2779:11 *C 32.816 43.899
*N *2779:12 *C 33.424 42.406
*N *2779:13 *C 33.424 42.986
*N *2779:14 *C 33.410 43.000
*N *2779:15 *C 32.830 43.000
*N *2779:16 *C 32.816 43.000
*N *2779:17 *C 32.816 40.886
*N *2779:18 *C 32.816 40.872
*N *2779:19 *C 35.235 40.872
*N *2779:20 *C 35.248 40.860
*N *2779:21 *C 35.248 40.720

*CAP
0 *259:Y 0.001
1 *261:A2 0.001
2 *313:A1 0.001
3 *319:A1 0.001
4 *2779:4 0.01565833
5 *2779:5 0.01680186
6 *2779:6 0.02581978
7 *2779:7 0.02249633
8 *2779:8 0.02363986
9 *2779:9 0.04559093
10 *2779:10 0.04559093
11 *2779:11 0.05427356
12 *2779:12 0.03776501
13 *2779:13 0.03890854
14 *2779:14 0.02966381
15 *2779:15 0.02966381
16 *2779:16 0.1857414
17 *2779:17 0.1296888
18 *2779:18 0.1224985
19 *2779:19 0.09489964
20 *2779:20 0.01126907
21 *2779:21 0.01012554

*RES
0 *259:Y *2779:21 1
1 *2779:20 *2779:19 0.5
2 *2779:19 *2779:18 4.31875
3 *2779:21 *2779:20 0.2325
4 *2779:16 *2779:15 0.5
5 *2779:16 *2779:11 1.604464
6 *2779:15 *2779:14 1.0375
7 *2779:13 *2779:12 1.0375
8 *2779:14 *2779:13 0.5
9 *2779:12 *261:A2 1
10 *2779:17 *2779:16 3.775893
11 *2779:18 *2779:17 0.5
12 *2779:18 *2779:6 1.061607
13 *2779:5 *2779:4 0.4946429
14 *2779:6 *2779:5 0.5
15 *2779:4 *319:A1 1
16 *2779:11 *2779:10 0.5
17 *2779:10 *2779:9 2.123214
18 *2779:8 *2779:7 0.7660715
19 *2779:9 *2779:8 0.5
20 *2779:7 *313:A1 1

*END

*D_NET *2784 1.128617 //LENGTH 13.199 LUMPCC 0 DR

*CONN
*I *315:Y O *L 0 *C 34.792 43.152
*I *210:A4 I *L 0.529682 *C 30.840 42.392
*I *316:A4 I *L 0.569168 *C 29.472 44.064
*I *322:A3 I *L 0.539281 *C 29.624 45.736
*I *322:A1 I *L 0.484201 *C 29.016 46.040
*I *326:A2 I *L 0.54421 *C 27.952 45.280
*N *2784:6 *C 27.952 45.280
*N *2784:7 *C 27.952 45.419
*N *2784:8 *C 27.966 45.432
*N *2784:9 *C 29.016 45.432
*N *2784:10 *C 29.016 46.027
*N *2784:11 *C 29.016 45.750
*N *2784:12 *C 29.016 45.736
*N *2784:13 *C 29.611 45.736
*N *2784:14 *C 29.623 45.736
*N *2784:15 *C 29.472 45.736
*N *2784:16 *C 29.472 44.064
*N *2784:17 *C 29.472 43.912
*N *2784:18 *C 29.624 43.912
*N *2784:19 *C 29.624 42.406
*N *2784:20 *C 29.638 42.392
*N *2784:21 *C 30.840 42.210
*N *2784:22 *C 30.840 42.380
*N *2784:23 *C 30.840 42.392
*N *2784:24 *C 34.779 42.392
*N *2784:25 *C 34.792 42.406
*N *2784:26 *C 34.792 43.139

*CAP
0 *315:Y 0.001
1 *210:A4 0.001
2 *316:A4 0.001
3 *322:A3 0.001
4 *322:A1 0.001
5 *326:A2 0.001
6 *2784:6 0.01132826
7 *2784:7 0.01247179
8 *2784:8 0.04144287
9 *2784:9 0.0537515
10 *2784:10 0.01581098
11 *2784:11 0.01695451
12 *2784:12 0.03761229
13 *2784:13 0.0270827
14 *2784:14 0.002857716
15 *2784:15 0.09878156
16 *2784:16 0.09828202
17 *2784:17 0.0174987
18 *2784:18 0.09225713
19 *2784:19 0.08296175
20 *2784:20 0.04525014
21 *2784:21 0.02014879
22 *2784:22 0.01544719
23 *2784:23 0.2093717
24 *2784:24 0.1623425
25 *2784:25 0.03105292
26 *2784:26 0.02990939

*RES
0 *315:Y *2784:26 1
1 *2784:25 *2784:24 0.5
2 *2784:24 *2784:23 7.033036
3 *2784:26 *2784:25 1.308929
4 *2784:22 *210:A4 1
5 *2784:22 *2784:21 0.2825
6 *2784:23 *2784:22 0.5
7 *2784:23 *2784:20 2.147322
8 *2784:14 *322:A3 1
9 *2784:14 *2784:13 0.5
10 *2784:19 *2784:18 2.690179
11 *2784:20 *2784:19 0.5
12 *2784:16 *316:A4 1
13 *2784:16 *2784:15 2.985714
14 *2784:13 *2784:12 1.061607
15 *2784:11 *2784:10 0.4946429
16 *2784:12 *2784:11 0.5
17 *2784:12 *2784:9 0.5428572
18 *2784:10 *322:A1 1
19 *2784:7 *2784:6 0.2325
20 *2784:8 *2784:7 0.5
21 *2784:6 *326:A2 1
22 *2784:17 *2784:16 0.2714286
23 *2784:18 *2784:17 0.2714286
24 *2784:15 *2784:14 0.2696429
25 *2784:9 *2784:8 1.875893

*END

*D_NET *2789 0.759607 //LENGTH 8.273 LUMPCC 0 DR

*CONN
*I *268:Y O *L 0 *C 44.368 20.960
*I *292:A4 I *L 0.554348 *C 42.696 21.112
*I *291:A2 I *L 0.570549 *C 42.696 21.872
*I *269:A I *L 0.582888 *C 40.416 22.632
*I *328:A2 I *L 0.52073 *C 40.645 24.000
*N *2789:5 *C 40.431 24.000
*N *2789:6 *C 40.416 23.986
*N *2789:7 *C 40.416 22.646
*N *2789:8 *C 40.430 22.632
*N *2789:9 *C 42.683 22.632
*N *2789:10 *C 42.696 22.619
*N *2789:11 *C 42.696 21.886
*N *2789:12 *C 42.696 21.707
*N *2789:13 *C 42.696 21.126
*N *2789:14 *C 42.696 21.416
*N *2789:15 *C 42.710 21.416
*N *2789:16 *C 44.355 21.416
*N *2789:17 *C 44.368 21.402
*N *2789:18 *C 44.368 20.974

*CAP
0 *268:Y 0.001
1 *292:A4 0.001
2 *291:A2 0.001
3 *269:A 0.001
4 *328:A2 0.01715321
5 *2789:5 0.01555908
6 *2789:6 0.08847743
7 *2789:7 0.08536996
8 *2789:8 0.1068599
9 *2789:9 0.1068599
10 *2789:10 0.04075265
11 *2789:11 0.05032925
12 *2789:12 0.02443417
13 *2789:13 0.01311436
14 *2789:14 0.02797193
15 *2789:15 0.06499676
16 *2789:16 0.06499676
17 *2789:17 0.02493755
18 *2789:18 0.02379401

*RES
0 *268:Y *2789:18 1
1 *2789:11 *291:A2 1
2 *2789:11 *2789:10 1.308929
3 *2789:13 *292:A4 1
4 *2789:14 *2789:13 0.5187501
5 *2789:14 *2789:12 0.5187501
6 *2789:15 *2789:14 0.5
7 *2789:17 *2789:16 0.5
8 *2789:16 *2789:15 2.9375
9 *2789:18 *2789:17 0.7660714
10 *2789:5 *328:A2 0.4280001
11 *2789:6 *2789:5 1
12 *2789:7 *269:A 1
13 *2789:7 *2789:6 2.394643
14 *2789:10 *2789:9 0.5
15 *2789:9 *2789:8 4.023214
16 *2789:8 *2789:7 0.5
17 *2789:12 *2789:11 0.2983333

*END

*D_NET *2795 1.766867 //LENGTH 18.836 LUMPCC 0 DR

*CONN
*I *243:QN O *L 0 *C 34.944 22.176
*I *255:A2 I *L 0.45541 *C 39.504 19.288
*I *328:A4 I *L 0.552216 *C 40.568 24.456
*I *270:A2 I *L 0.466516 *C 43.152 24.152
*I *206:A3 I *L 0.535117 *C 44.672 22.328
*N *2795:5 *C 44.672 22.146
*N *2795:6 *C 44.672 22.316
*N *2795:7 *C 44.659 22.328
*N *2795:8 *C 43.152 24.151
*N *2795:9 *C 43.152 22.341
*N *2795:10 *C 43.152 22.328
*N *2795:11 *C 40.568 24.455
*N *2795:12 *C 39.504 19.302
*N *2795:13 *C 39.504 21.402
*N *2795:14 *C 39.518 21.416
*N *2795:15 *C 40.099 21.416
*N *2795:16 *C 40.112 21.430
*N *2795:17 *C 40.112 22.328
*N *2795:18 *C 40.568 22.341
*N *2795:19 *C 40.568 22.328
*N *2795:20 *C 34.958 22.328
*N *2795:21 *C 34.944 22.315
*N *2795:22 *C 34.944 22.177

*CAP
0 *243:QN 0.001
1 *255:A2 0.001
2 *328:A4 0.001
3 *270:A2 0.001
4 *206:A3 0.001
5 *2795:5 0.01324997
6 *2795:6 0.008548366
7 *2795:7 0.05950981
8 *2795:8 0.1010508
9 *2795:9 0.1020615
10 *2795:10 0.1643073
11 *2795:11 0.1303053
12 *2795:12 0.1390069
13 *2795:13 0.1401505
14 *2795:14 0.02604211
15 *2795:15 0.02604211
16 *2795:16 0.04819468
17 *2795:17 0.06789799
18 *2795:18 0.1493731
19 *2795:19 0.3364765
20 *2795:20 0.231679
21 *2795:21 0.009557058
22 *2795:22 0.008413527

*RES
0 *243:QN *2795:22 1
1 *2795:6 *206:A3 1
2 *2795:6 *2795:5 0.2825
3 *2795:7 *2795:6 0.5
4 *2795:9 *2795:8 3.23125
5 *2795:10 *2795:9 0.5
6 *2795:10 *2795:7 2.690179
7 *2795:8 *270:A2 1
8 *2795:11 *328:A4 1
9 *2795:18 *2795:17 0.8142858
10 *2795:18 *2795:11 3.774107
11 *2795:19 *2795:18 0.5
12 *2795:19 *2795:10 4.614286
13 *2795:16 *2795:15 0.5
14 *2795:15 *2795:14 1.0375
15 *2795:13 *2795:12 3.751786
16 *2795:14 *2795:13 0.5
17 *2795:12 *255:A2 1
18 *2795:21 *2795:20 0.5
19 *2795:20 *2795:19 10.01875
20 *2795:22 *2795:21 0.2455357
21 *2795:17 *2795:16 1.604464

*END

*D_NET *2799 1.045425 //LENGTH 9.281 LUMPCC 0 DR

*CONN
*I *248:QN O *L 0 *C 38.440 15.488
*I *255:A4 I *L 0.443333 *C 39.170 19.313
*I *506:A2 I *L 0.537813 *C 39.656 12.600
*N *2799:3 *C 39.656 12.614
*N *2799:4 *C 39.656 15.931
*N *2799:5 *C 39.643 15.944
*N *2799:6 *C 38.759 19.288
*N *2799:7 *C 38.744 19.274
*N *2799:8 *C 38.744 15.958
*N *2799:9 *C 38.744 15.944
*N *2799:10 *C 38.454 15.944
*N *2799:11 *C 38.440 15.931
*N *2799:12 *C 38.440 15.502

*CAP
0 *248:QN 0.001
1 *255:A4 0.02410054
2 *506:A2 0.001
3 *2799:3 0.1905925
4 *2799:4 0.191736
5 *2799:5 0.04200193
6 *2799:6 0.02250641
7 *2799:7 0.2133902
8 *2799:8 0.2132054
9 *2799:9 0.05825182
10 *2799:10 0.01447086
11 *2799:11 0.03715664
12 *2799:12 0.03601311

*RES
0 *248:QN *2799:12 1
1 *2799:4 *2799:3 5.923214
2 *2799:5 *2799:4 0.5
3 *2799:3 *506:A2 1
4 *2799:8 *2799:7 5.923214
5 *2799:9 *2799:8 0.5
6 *2799:9 *2799:5 1.604464
7 *2799:6 *255:A4 0.822
8 *2799:7 *2799:6 1
9 *2799:11 *2799:10 0.5
10 *2799:10 *2799:9 0.5187501
11 *2799:12 *2799:11 0.7660714

*END

*D_NET *2803 1.514978 //LENGTH 17.423 LUMPCC 0 DR

*CONN
*I *247:QN O *L 0 *C 37.680 14.576
*I *507:A2 I *L 0.515513 *C 44.520 11.536
*I *253:A3 I *L 0.584801 *C 43.912 14.272
*I *254:A2 I *L 0.537813 *C 43.715 15.944
*I *321:A6 I *L 0.609639 *C 41.784 10.320
*N *2803:5 *C 41.784 10.321
*N *2803:6 *C 43.748 15.944
*N *2803:7 *C 43.760 15.931
*N *2803:8 *C 43.760 14.272
*N *2803:9 *C 43.912 14.272
*N *2803:10 *C 44.520 14.272
*N *2803:11 *C 44.520 11.550
*N *2803:12 *C 44.520 11.384
*N *2803:13 *C 44.507 11.384
*N *2803:14 *C 41.797 11.384
*N *2803:15 *C 41.784 11.370
*N *2803:16 *C 41.632 11.384
*N *2803:17 *C 41.632 14.107
*N *2803:18 *C 41.619 14.120
*N *2803:19 *C 37.694 14.120
*N *2803:20 *C 37.680 14.134
*N *2803:21 *C 37.680 14.575

*CAP
0 *247:QN 0.001
1 *507:A2 0.001
2 *253:A3 0.001
3 *254:A2 0.01388563
4 *321:A6 0.001
5 *2803:5 0.06437147
6 *2803:6 0.01229151
7 *2803:7 0.09299099
8 *2803:8 0.1013625
9 *2803:9 0.02780173
10 *2803:10 0.1373101
11 *2803:11 0.1209032
12 *2803:12 0.008683559
13 *2803:13 0.1188378
14 *2803:14 0.1188378
15 *2803:15 0.07329512
16 *2803:16 0.131806
17 *2803:17 0.1222469
18 *2803:18 0.1586463
19 *2803:19 0.1586463
20 *2803:20 0.02510242
21 *2803:21 0.02395888

*RES
0 *247:QN *2803:21 1
1 *2803:11 *507:A2 1
2 *2803:11 *2803:10 4.861608
3 *2803:9 *253:A3 1
4 *2803:9 *2803:8 0.2714286
5 *2803:6 *254:A2 0.2325
6 *2803:7 *2803:6 1
7 *2803:12 *2803:11 0.2758334
8 *2803:13 *2803:12 0.5
9 *2803:15 *2803:14 0.5
10 *2803:15 *2803:5 1.874107
11 *2803:14 *2803:13 4.8375
12 *2803:5 *321:A6 1
13 *2803:17 *2803:16 4.861607
14 *2803:18 *2803:17 0.5
15 *2803:20 *2803:19 0.5
16 *2803:19 *2803:18 7.008929
17 *2803:21 *2803:20 0.788393
18 *2803:16 *2803:15 0.2714286
19 *2803:8 *2803:7 2.961607
20 *2803:10 *2803:9 1.085714

*END

*D_NET *2809 0.6622417 //LENGTH 9.292 LUMPCC 0 DR

*CONN
*I *359:Y O *L 0 *C 30.384 17.920
*I *367:D I *L 0.543569 *C 25.216 16.096
*N *2809:2 *C 25.216 16.096
*N *2809:3 *C 25.216 16.236
*N *2809:4 *C 25.230 16.248
*N *2809:5 *C 29.611 16.248
*N *2809:6 *C 29.624 16.262
*N *2809:7 *C 29.624 18.363
*N *2809:8 *C 29.638 18.376
*N *2809:9 *C 30.219 18.376
*N *2809:10 *C 30.232 18.390
*N *2809:11 *C 30.232 18.666
*N *2809:12 *C 30.232 18.680
*N *2809:13 *C 30.372 18.680
*N *2809:14 *C 30.384 18.666
*N *2809:15 *C 30.384 17.934

*CAP
0 *359:Y 0.001
1 *367:D 0.001
2 *2809:2 0.00803237
3 *2809:3 0.009175902
4 *2809:4 0.1582609
5 *2809:5 0.158261
6 *2809:6 0.07693739
7 *2809:7 0.07693754
8 *2809:8 0.01846469
9 *2809:9 0.01846469
10 *2809:10 0.01320426
11 *2809:11 0.01320412
12 *2809:12 0.008889765
13 *2809:13 0.008889664
14 *2809:14 0.04633145
15 *2809:15 0.04518792

*RES
0 *359:Y *2809:15 1
1 *2809:2 *367:D 1
2 *2809:3 *2809:2 0.2325
3 *2809:4 *2809:3 0.5
4 *2809:5 *2809:4 7.823215
5 *2809:6 *2809:5 0.5
6 *2809:7 *2809:6 3.751786
7 *2809:8 *2809:7 0.5
8 *2809:10 *2809:9 0.5
9 *2809:9 *2809:8 1.0375
10 *2809:12 *2809:11 0.5
11 *2809:11 *2809:10 0.4946429
12 *2809:14 *2809:13 0.5
13 *2809:13 *2809:12 0.2325
14 *2809:15 *2809:14 1.308929

*END

*D_NET *2814 0.7092034 //LENGTH 7.778 LUMPCC 0 DR

*CONN
*I *354:Y O *L 0 *C 25.064 27.952
*I *370:D I *L 0.543569 *C 29.776 26.128
*N *2814:2 *C 29.776 26.114
*N *2814:3 *C 29.776 25.686
*N *2814:4 *C 29.763 25.672
*N *2814:5 *C 25.078 25.672
*N *2814:6 *C 25.064 25.686
*N *2814:7 *C 25.064 27.939

*CAP
0 *354:Y 0.001
1 *370:D 0.001
2 *2814:2 0.02889461
3 *2814:3 0.03003814
4 *2814:4 0.2125908
5 *2814:5 0.2125908
6 *2814:6 0.1121163
7 *2814:7 0.1109728

*RES
0 *354:Y *2814:7 1
1 *2814:2 *370:D 1
2 *2814:3 *2814:2 0.7660714
3 *2814:4 *2814:3 0.5
4 *2814:6 *2814:5 0.5
5 *2814:5 *2814:4 8.366072
6 *2814:7 *2814:6 4.023215

*END

*D_NET *2818 0.4355729 //LENGTH 4.135 LUMPCC 0 DR

*CONN
*I *350:Y O *L 0 *C 20.808 35.552
*I *362:D I *L 0.543569 *C 18.832 37.376
*N *2818:2 *C 18.832 37.364
*N *2818:3 *C 18.832 37.224
*N *2818:4 *C 18.846 37.224
*N *2818:5 *C 20.794 37.224
*N *2818:6 *C 20.808 37.211
*N *2818:7 *C 20.808 35.566

*CAP
0 *350:Y 0.001
1 *362:D 0.001
2 *2818:2 0.01635164
3 *2818:3 0.01749517
4 *2818:4 0.08346567
5 *2818:5 0.08346567
6 *2818:6 0.1169691
7 *2818:7 0.1158256

*RES
0 *350:Y *2818:7 1
1 *2818:2 *362:D 1
2 *2818:3 *2818:2 0.2325
3 *2818:4 *2818:3 0.5
4 *2818:6 *2818:5 0.5
5 *2818:5 *2818:4 3.480358
6 *2818:7 *2818:6 2.9375

*END

*D_NET *2822 0.8015046 //LENGTH 8.543 LUMPCC 0 DR

*CONN
*I *346:Y O *L 0 *C 22.784 8.800
*I *374:D I *L 0.543569 *C 17.312 6.064
*N *2822:2 *C 17.312 6.064
*N *2822:3 *C 17.312 6.204
*N *2822:4 *C 17.326 6.216
*N *2822:5 *C 22.771 6.216
*N *2822:6 *C 22.784 6.230
*N *2822:7 *C 22.784 8.787

*CAP
0 *346:Y 0.001
1 *374:D 0.001
2 *2822:2 0.007353513
3 *2822:3 0.008497044
4 *2822:4 0.2913063
5 *2822:5 0.2913063
6 *2822:6 0.1010925
7 *2822:7 0.09994894

*RES
0 *346:Y *2822:7 1
1 *2822:2 *374:D 1
2 *2822:3 *2822:2 0.2325
3 *2822:4 *2822:3 0.5
4 *2822:6 *2822:5 0.5
5 *2822:5 *2822:4 9.723214
6 *2822:7 *2822:6 4.566072

*END

*D_NET *2826 4.614373 //LENGTH 41.669 LUMPCC 0 DR

*CONN
*I *251:Y O *L 0 *C 22.024 24.000
*I *379:A3 I *L 0.548175 *C 20.352 23.240
*I *382:A3 I *L 0.548175 *C 23.796 23.240
*I *385:A3 I *L 0.548175 *C 23.796 16.856
*I *380:A3 I *L 0.548175 *C 23.848 16.552
*I *390:A3 I *L 0.548175 *C 23.696 13.512
*I *381:A3 I *L 0.548175 *C 22.784 13.208
*I *386:A3 I *L 0.548175 *C 20.352 13.208
*I *392:A3 I *L 0.548175 *C 17.768 13.208
*I *391:A3 I *L 0.548175 *C 17.768 16.552
*I *389:A3 I *L 0.548175 *C 17.212 16.856
*I *388:A3 I *L 0.548175 *C 17.768 20.200
*I *387:A3 I *L 0.548175 *C 18.224 23.544
*I *384:A3 I *L 0.548175 *C 18.832 23.240
*I *383:A3 I *L 0.548175 *C 19.744 23.544
*I *393:A3 I *L 0.548175 *C 17.160 10.168
*I *378:A3 I *L 0.548175 *C 21.872 23.240
*N *2826:17 *C 17.160 10.181
*N *2826:18 *C 17.160 13.195
*N *2826:19 *C 17.174 13.208
*N *2826:20 *C 19.744 23.558
*N *2826:21 *C 19.744 23.835
*N *2826:22 *C 19.730 23.848
*N *2826:23 *C 18.846 23.240
*N *2826:24 *C 18.984 23.240
*N *2826:25 *C 18.984 23.835
*N *2826:26 *C 18.984 23.848
*N *2826:27 *C 18.238 23.848
*N *2826:28 *C 18.224 23.835
*N *2826:29 *C 18.224 23.544
*N *2826:30 *C 18.224 22.038
*N *2826:31 *C 18.210 22.024
*N *2826:32 *C 17.782 22.024
*N *2826:33 *C 17.768 22.011
*N *2826:34 *C 17.768 20.200
*N *2826:35 *C 17.768 16.856
*N *2826:36 *C 17.160 16.674
*N *2826:37 *C 17.160 16.856
*N *2826:38 *C 17.160 16.844
*N *2826:39 *C 17.174 16.856
*N *2826:40 *C 17.602 16.856
*N *2826:41 *C 17.616 16.856
*N *2826:42 *C 17.616 16.552
*N *2826:43 *C 17.768 16.538
*N *2826:44 *C 17.768 13.222
*N *2826:45 *C 17.768 13.208
*N *2826:46 *C 20.352 13.026
*N *2826:47 *C 20.352 13.196
*N *2826:48 *C 20.352 13.208
*N *2826:49 *C 22.784 13.026
*N *2826:50 *C 22.784 13.196
*N *2826:51 *C 22.784 13.208
*N *2826:52 *C 23.696 13.208
*N *2826:53 *C 23.696 13.511
*N *2826:54 *C 23.697 13.512
*N *2826:55 *C 23.848 13.512
*N *2826:56 *C 23.848 16.552
*N *2826:57 *C 23.848 16.856
*N *2826:58 *C 23.848 16.856
*N *2826:59 *C 23.848 23.240
*N *2826:60 *C 23.848 23.227
*N *2826:61 *C 23.835 23.240
*N *2826:62 *C 20.352 23.058
*N *2826:63 *C 20.352 23.228
*N *2826:64 *C 20.366 23.240
*N *2826:65 *C 21.872 23.240
*N *2826:66 *C 21.872 23.254
*N *2826:67 *C 21.872 23.544
*N *2826:68 *C 22.024 23.544
*N *2826:69 *C 22.024 23.986

*CAP
0 *251:Y 0.001
1 *379:A3 0.001
2 *382:A3 0.008517073
3 *385:A3 0.008625878
4 *380:A3 0.001
5 *390:A3 0.001
6 *381:A3 0.001
7 *386:A3 0.001
8 *392:A3 0.001
9 *391:A3 0.001
10 *389:A3 0.008455968
11 *388:A3 0.001
12 *387:A3 0.001
13 *384:A3 0.001
14 *383:A3 0.001
15 *393:A3 0.001
16 *378:A3 0.001
17 *2826:17 0.1512072
18 *2826:18 0.1523508
19 *2826:19 0.02078976
20 *2826:20 0.02367934
21 *2826:21 0.02482287
22 *2826:22 0.05053477
23 *2826:23 0.005360256
24 *2826:24 0.04874239
25 *2826:25 0.03868053
26 *2826:26 0.1054171
27 *2826:27 0.05310331
28 *2826:28 0.0177131
29 *2826:29 0.106259
30 *2826:30 0.08791035
31 *2826:31 0.02365514
32 *2826:32 0.02365514
33 *2826:33 0.09899309
34 *2826:34 0.3072799
35 *2826:35 0.2166799
36 *2826:36 0.01601777
37 *2826:37 0.006861841
38 *2826:38 0.01264461
39 *2826:39 0.01972803
40 *2826:40 0.01972803
41 *2826:41 0.02856571
42 *2826:42 0.0303389
43 *2826:43 0.2084042
44 *2826:44 0.1993814
45 *2826:45 0.1164703
46 *2826:46 0.01232566
47 *2826:47 0.007624062
48 *2826:48 0.1866646
49 *2826:49 0.01414409
50 *2826:50 0.009442494
51 *2826:51 0.1286675
52 *2826:52 0.0494593
53 *2826:53 0.009996818
54 *2826:54 0.002729201
55 *2826:55 0.2453328
56 *2826:56 0.2592652
57 *2826:57 0.007031751
58 *2826:58 0.5337381
59 *2826:59 0.006922946
60 *2826:60 0.5076733
61 *2826:61 0.07049505
62 *2826:62 0.01545887
63 *2826:63 0.01075727
64 *2826:64 0.05676669
65 *2826:65 0.1290408
66 *2826:66 0.0145888
67 *2826:67 0.02677679
68 *2826:68 0.03265293
69 *2826:69 0.02224398

*RES
0 *251:Y *2826:69 1
1 *2826:56 *380:A3 1
2 *2826:56 *2826:55 5.428572
3 *2826:59 *382:A3 0.09166668
4 *2826:60 *2826:59 1
5 *2826:60 *2826:58 11.37589
6 *2826:57 *385:A3 0.09166668
7 *2826:58 *2826:57 1
8 *2826:58 *2826:56 0.5428572
9 *2826:54 *390:A3 1
10 *2826:54 *2826:53 0.5
11 *2826:53 *2826:52 0.5410715
12 *2826:50 *381:A3 1
13 *2826:50 *2826:49 0.2825
14 *2826:51 *2826:50 0.5
15 *2826:51 *2826:48 4.342857
16 *2826:69 *2826:68 0.7901786
17 *2826:61 *2826:60 0.5
18 *2826:66 *2826:65 0.5
19 *2826:66 *378:A3 1
20 *2826:65 *2826:64 2.690179
21 *2826:65 *2826:61 3.504465
22 *2826:63 *379:A3 1
23 *2826:63 *2826:62 0.2825
24 *2826:64 *2826:63 0.5
25 *2826:47 *386:A3 1
26 *2826:47 *2826:46 0.2825
27 *2826:48 *2826:47 0.5
28 *2826:48 *2826:45 4.614286
29 *2826:21 *2826:20 0.4946429
30 *2826:22 *2826:21 0.5
31 *2826:20 *383:A3 1
32 *2826:25 *2826:24 1.061607
33 *2826:26 *2826:25 0.5
34 *2826:26 *2826:22 1.333036
35 *2826:23 *384:A3 1
36 *2826:28 *2826:27 0.5
37 *2826:27 *2826:26 1.333036
38 *2826:29 *387:A3 1
39 *2826:29 *2826:28 0.5187501
40 *2826:30 *2826:29 2.690179
41 *2826:31 *2826:30 0.5
42 *2826:33 *2826:32 0.5
43 *2826:32 *2826:31 0.7660714
44 *2826:34 *388:A3 1
45 *2826:34 *2826:33 3.233036
46 *2826:43 *391:A3 1
47 *2826:43 *2826:42 0.2714286
48 *2826:44 *392:A3 1
49 *2826:44 *2826:43 5.923215
50 *2826:45 *2826:44 0.5
51 *2826:45 *2826:19 1.061607
52 *2826:41 *2826:40 0.5
53 *2826:41 *2826:35 0.2714286
54 *2826:40 *2826:39 0.7660715
55 *2826:38 *2826:37 1
56 *2826:38 *2826:36 0.2825
57 *2826:39 *2826:38 0.5
58 *2826:37 *389:A3 0.09166668
59 *2826:18 *2826:17 5.380358
60 *2826:19 *2826:18 0.5
61 *2826:17 *393:A3 1
62 *2826:42 *2826:41 0.5428572
63 *2826:35 *2826:34 5.971429
64 *2826:24 *2826:23 0.2473214
65 *2826:67 *2826:66 0.5187501
66 *2826:68 *2826:67 0.2714286
67 *2826:55 *2826:54 0.2696429
68 *2826:52 *2826:51 1.628572

*END

*D_NET *2844 0.2900852 //LENGTH 3.370 LUMPCC 0 DR

*CONN
*I *423:Y O *L 0 *C 33.576 26.128
*I *341:A I *L 0.732103 *C 31.296 25.976
*N *2844:2 *C 31.296 25.963
*N *2844:3 *C 31.296 25.686
*N *2844:4 *C 31.309 25.672
*N *2844:5 *C 33.562 25.672
*N *2844:6 *C 33.576 25.686
*N *2844:7 *C 33.576 26.114

*CAP
0 *423:Y 0.001
1 *341:A 0.001
2 *2844:2 0.01473911
3 *2844:3 0.01588264
4 *2844:4 0.09873769
5 *2844:5 0.09873769
6 *2844:6 0.03056581
7 *2844:7 0.02942227

*RES
0 *423:Y *2844:7 1
1 *2844:2 *341:A 1
2 *2844:3 *2844:2 0.4946429
3 *2844:4 *2844:3 0.5
4 *2844:6 *2844:5 0.5
5 *2844:5 *2844:4 4.023215
6 *2844:7 *2844:6 0.7660714

*END

*D_NET *2847 0.683497 //LENGTH 9.435 LUMPCC 0 DR

*CONN
*I *169:Y O *L 0 *C 45.432 43.912
*I *497:D I *L 0.543569 *C 36.616 44.064
*N *2847:2 *C 45.432 43.730
*N *2847:3 *C 36.616 44.052
*N *2847:4 *C 36.616 43.912
*N *2847:5 *C 36.630 43.912
*N *2847:6 *C 45.419 43.912
*N *2847:7 *C 45.432 43.900

*CAP
0 *169:Y 0.001
1 *497:D 0.001
2 *2847:2 0.01736249
3 *2847:3 0.007169849
4 *2847:4 0.00831338
5 *2847:5 0.3179952
6 *2847:6 0.3179952
7 *2847:7 0.01266089

*RES
0 *169:Y *2847:7 1
1 *2847:3 *497:D 1
2 *2847:4 *2847:3 0.2325
3 *2847:5 *2847:4 0.5
4 *2847:7 *2847:6 0.5
5 *2847:7 *2847:2 0.2825
6 *2847:6 *2847:5 15.69464

*END

*D_NET *2852 0.4884888 //LENGTH 6.395 LUMPCC 0 DR

*CONN
*I *487:Y O *L 0 *C 42.240 33.880
*I *418:D I *L 0.543562 *C 36.464 34.032
*N *2852:2 *C 42.240 33.698
*N *2852:3 *C 36.464 34.020
*N *2852:4 *C 36.464 33.880
*N *2852:5 *C 36.477 33.880
*N *2852:6 *C 42.227 33.880
*N *2852:7 *C 42.240 33.867

*CAP
0 *487:Y 0.001
1 *418:D 0.001
2 *2852:2 0.01389379
3 *2852:3 0.007787532
4 *2852:4 0.008931063
5 *2852:5 0.2233421
6 *2852:6 0.2233421
7 *2852:7 0.009192192

*RES
0 *487:Y *2852:7 1
1 *2852:3 *418:D 1
2 *2852:4 *2852:3 0.2325
3 *2852:5 *2852:4 0.5
4 *2852:7 *2852:6 0.5
5 *2852:7 *2852:2 0.2825
6 *2852:6 *2852:5 10.26607

*END

*D_NET *2855 0.1146294 //LENGTH 1.192 LUMPCC 0 DR

*CONN
*I *320:Y O *L 0 *C 44.831 36.008
*I *165:A3 I *L 0.456834 *C 43.638 36.032

*CAP
0 *320:Y 0.05731468
1 *165:A3 0.05731468

*RES
0 *320:Y *165:A3 2.385

*END

*D_NET *2857 1.094077 //LENGTH 11.300 LUMPCC 0 DR

*CONN
*I *444:Y O *L 0 *C 41.784 37.528
*I *467:A2 I *L 0.55521 *C 40.872 32.512
*I *445:A2 I *L 0.537813 *C 43.608 34.184
*N *2857:3 *C 43.608 34.171
*N *2857:4 *C 43.608 32.373
*N *2857:5 *C 43.595 32.360
*N *2857:6 *C 40.886 32.360
*N *2857:7 *C 40.872 32.373
*N *2857:8 *C 40.872 32.526
*N *2857:9 *C 40.872 36.907
*N *2857:10 *C 40.886 36.920
*N *2857:11 *C 41.771 36.920
*N *2857:12 *C 41.784 36.934
*N *2857:13 *C 41.784 37.515

*CAP
0 *444:Y 0.001
1 *467:A2 0.001
2 *445:A2 0.001
3 *2857:3 0.1011943
4 *2857:4 0.1023379
5 *2857:5 0.1157539
6 *2857:6 0.1157539
7 *2857:7 0.01137686
8 *2857:8 0.2531385
9 *2857:9 0.2411261
10 *2857:10 0.03601606
11 *2857:11 0.03601606
12 *2857:12 0.03975335
13 *2857:13 0.03860982

*RES
0 *444:Y *2857:13 1
1 *2857:9 *2857:8 7.823215
2 *2857:10 *2857:9 0.5
3 *2857:12 *2857:11 0.5
4 *2857:11 *2857:10 1.580357
5 *2857:13 *2857:12 1.0375
6 *2857:8 *467:A2 1
7 *2857:8 *2857:7 0.255
8 *2857:7 *2857:6 0.5
9 *2857:6 *2857:5 4.837501
10 *2857:4 *2857:3 3.208929
11 *2857:5 *2857:4 0.5
12 *2857:3 *445:A2 1

*END

*D_NET *2861 0.2617603 //LENGTH 2.318 LUMPCC 0 DR

*CONN
*I *473:Y O *L 0 *C 43.274 29.168
*I *474:A3 I *L 0.519105 *C 43.000 27.676
*N *2861:2 *C 42.861 27.648
*N *2861:3 *C 42.848 27.662
*N *2861:4 *C 42.848 29.155
*N *2861:5 *C 42.863 29.168

*CAP
0 *473:Y 0.0292413
1 *474:A3 0.01356656
2 *2861:2 0.01197244
3 *2861:3 0.0896664
4 *2861:4 0.0896664
5 *2861:5 0.02764717

*RES
0 *473:Y *2861:5 0.8220001
1 *2861:2 *474:A3 0.2325
2 *2861:3 *2861:2 1
3 *2861:5 *2861:4 1
4 *2861:4 *2861:3 2.666071

*END

*D_NET *2863 0.5852099 //LENGTH 5.960 LUMPCC 0 DR

*CONN
*I *470:Y O *L 0 *C 45.888 34.336
*I *476:A3 I *L 0.465144 *C 46.040 29.168
*I *471:A2 I *L 0.573758 *C 46.192 31.600
*N *2863:3 *C 46.192 31.587
*N *2863:4 *C 46.192 31.448
*N *2863:5 *C 46.040 29.181
*N *2863:6 *C 46.040 31.448
*N *2863:7 *C 46.040 32.664
*N *2863:8 *C 45.888 32.664
*N *2863:9 *C 45.888 34.335

*CAP
0 *470:Y 0.001
1 *476:A3 0.001
2 *471:A2 0.001
3 *2863:3 0.01226929
4 *2863:4 0.02249431
5 *2863:5 0.1111392
6 *2863:6 0.1943787
7 *2863:7 0.08033635
8 *2863:8 0.08591825
9 *2863:9 0.07567386

*RES
0 *470:Y *2863:9 1
1 *2863:3 *471:A2 1
2 *2863:5 *476:A3 1
3 *2863:9 *2863:8 2.983929
4 *2863:8 *2863:7 0.2714286
5 *2863:7 *2863:6 2.171429
6 *2863:6 *2863:5 4.047322
7 *2863:6 *2863:4 0.2714286
8 *2863:4 *2863:3 0.2473214

*END

*D_NET *2866 0.4730976 //LENGTH 4.586 LUMPCC 0 DR

*CONN
*I *476:Y O *L 0 *C 46.648 29.624
*I *164:A4 I *L 0.504499 *C 46.192 25.824
*N *2866:2 *C 46.192 25.838
*N *2866:3 *C 46.192 26.267
*N *2866:4 *C 46.206 26.280
*N *2866:5 *C 46.635 26.280
*N *2866:6 *C 46.648 26.294
*N *2866:7 *C 46.648 29.611

*CAP
0 *476:Y 0.001
1 *164:A4 0.001
2 *2866:2 0.03019286
3 *2866:3 0.03133639
4 *2866:4 0.0193401
5 *2866:5 0.0193401
6 *2866:6 0.1860158
7 *2866:7 0.1848723

*RES
0 *476:Y *2866:7 1
1 *2866:2 *164:A4 1
2 *2866:3 *2866:2 0.7660714
3 *2866:4 *2866:3 0.5
4 *2866:6 *2866:5 0.5
5 *2866:5 *2866:4 0.7660715
6 *2866:7 *2866:6 5.923214

*END

*D_NET *2868 1.123013 //LENGTH 11.114 LUMPCC 0 DR

*CONN
*I *429:Y O *L 0 *C 43.304 30.688
*I *164:A1 I *L 0.47841 *C 46.496 25.976
*I *430:A1 I *L 0.604822 *C 44.216 25.824
*I *433:A1 I *L 0.545966 *C 43.152 32.664
*N *2868:4 *C 43.303 30.840
*N *2868:5 *C 43.152 32.651
*N *2868:6 *C 43.152 30.840
*N *2868:7 *C 44.216 25.825
*N *2868:8 *C 46.496 25.794
*N *2868:9 *C 46.496 25.963
*N *2868:10 *C 46.483 25.976
*N *2868:11 *C 44.230 25.976
*N *2868:12 *C 44.216 25.963
*N *2868:13 *C 44.064 25.976
*N *2868:14 *C 44.064 30.839
*N *2868:15 *C 44.063 30.840
*N *2868:16 *C 43.318 30.840
*N *2868:17 *C 43.304 30.828
*N *2868:18 *C 43.304 30.701

*CAP
0 *429:Y 0.001
1 *164:A1 0.001
2 *430:A1 0.001
3 *433:A1 0.001
4 *2868:4 0.003069018
5 *2868:5 0.1019724
6 *2868:6 0.1112331
7 *2868:7 0.007861969
8 *2868:8 0.01886352
9 *2868:9 0.01416192
10 *2868:10 0.08532932
11 *2868:11 0.08532932
12 *2868:12 0.01684567
13 *2868:13 0.2893468
14 *2868:14 0.2797276
15 *2868:15 0.03657733
16 *2868:16 0.03657733
17 *2868:17 0.02133453
18 *2868:18 0.01078384

*RES
0 *429:Y *2868:18 1
1 *2868:7 *430:A1 1
2 *2868:12 *2868:11 0.5
3 *2868:12 *2868:7 0.2455357
4 *2868:11 *2868:10 4.023214
5 *2868:9 *164:A1 1
6 *2868:9 *2868:8 0.2825
7 *2868:10 *2868:9 0.5
8 *2868:18 *2868:17 0.2116667
9 *2868:14 *2868:13 8.683929
10 *2868:15 *2868:14 0.5
11 *2868:17 *2868:16 0.5
12 *2868:17 *2868:6 0.2714286
13 *2868:17 *2868:4 0.001
14 *2868:16 *2868:15 1.33125
15 *2868:5 *433:A1 1
16 *2868:6 *2868:5 3.233036
17 *2868:13 *2868:12 0.2714286

*END

*D_NET *2872 0.1612821 //LENGTH 1.838 LUMPCC 0 DR

*CONN
*I *484:Y O *L 0 *C 45.432 31.296
*I *485:A5 I *L 0.557577 *C 45.736 32.664
*N *2872:2 *C 45.723 32.664
*N *2872:3 *C 45.432 32.664
*N *2872:4 *C 45.432 31.309

*CAP
0 *484:Y 0.001
1 *485:A5 0.001
2 *2872:2 0.01070026
3 *2872:3 0.08254347
4 *2872:4 0.06603839

*RES
0 *484:Y *2872:4 1
1 *2872:2 *485:A5 1
2 *2872:4 *2872:3 2.41875
3 *2872:3 *2872:2 0.5187501

*END

*D_NET *2875 0.2483175 //LENGTH 2.919 LUMPCC 0 DR

*CONN
*I *486:Y O *L 0 *C 42.696 34.032
*I *487:A2 I *L 0.515513 *C 41.024 34.944
*N *2875:2 *C 41.024 34.931
*N *2875:3 *C 41.024 34.792
*N *2875:4 *C 41.038 34.792
*N *2875:5 *C 42.683 34.792
*N *2875:6 *C 42.696 34.779
*N *2875:7 *C 42.696 34.046

*CAP
0 *486:Y 0.001
1 *487:A2 0.001
2 *2875:2 0.01463721
3 *2875:3 0.01578074
4 *2875:4 0.07126755
5 *2875:5 0.07126755
6 *2875:6 0.03725397
7 *2875:7 0.03611043

*RES
0 *486:Y *2875:7 1
1 *2875:2 *487:A2 1
2 *2875:3 *2875:2 0.2325
3 *2875:4 *2875:3 0.5
4 *2875:6 *2875:5 0.5
5 *2875:5 *2875:4 2.9375
6 *2875:7 *2875:6 1.308929

*END

*D_NET *2877 0.7670644 //LENGTH 8.434 LUMPCC 0 DR

*CONN
*I *456:Y O *L 0 *C 46.648 39.200
*I *170:A2 I *L 0.515513 *C 45.781 38.592
*I *489:A4 I *L 0.514778 *C 42.733 39.200
*I *488:A I *L 0.582888 *C 42.392 40.872
*I *170:A1 I *L 0.484201 *C 46.070 39.352
*N *2877:5 *C 46.648 39.466
*N *2877:6 *C 46.608 39.466
*N *2877:7 *C 46.608 39.352
*N *2877:8 *C 46.952 38.902
*N *2877:9 *C 46.648 38.902
*N *2877:10 *C 46.608 38.902
*N *2877:11 *C 46.608 39.200
*N *2877:12 *C 42.392 40.858
*N *2877:13 *C 42.392 40.278
*N *2877:14 *C 42.406 40.264
*N *2877:15 *C 42.835 40.264
*N *2877:16 *C 42.848 40.251
*N *2877:17 *C 42.836 39.200
*N *2877:18 *C 42.848 39.212
*N *2877:19 *C 42.848 39.366
*N *2877:20 *C 42.861 39.352
*N *2877:21 *C 45.736 38.592
*N *2877:22 *C 45.736 38.605
*N *2877:23 *C 45.736 39.339
*N *2877:24 *C 45.736 39.352
*N *2877:25 *C 46.635 39.352
*N *2877:26 *C 46.648 39.340
*N *2877:27 *C 46.648 39.200
*N *2877:28 *C 46.648 39.200

*CAP
0 *456:Y 0.001
1 *170:A2 0.009359585
2 *489:A4 0.01417385
3 *488:A 0.001
4 *170:A1 0.03029235
5 *2877:5 0.001
6 *2877:6 0.001
7 *2877:7 0.03029235
8 *2877:8 0.001
9 *2877:9 0.001
10 *2877:10 0.001
11 *2877:11 0.001
12 *2877:12 0.02821491
13 *2877:13 0.02935844
14 *2877:14 0.0227058
15 *2877:15 0.0227058
16 *2877:16 0.05946497
17 *2877:17 0.01257972
18 *2877:18 0.01604677
19 *2877:19 0.07710586
20 *2877:20 0.1146324
21 *2877:21 0.007765458
22 *2877:22 0.0426015
23 *2877:23 0.04241659
24 *2877:24 0.1488881
25 *2877:25 0.03247662
26 *2877:26 0.009063482
27 *2877:27 0.00791995
28 *2877:28 0.001

*RES
0 *456:Y *2877:28 0.001
1 *2877:26 *2877:25 0.5
2 *2877:25 *2877:24 1.604464
3 *2877:27 *2877:26 0.2325
4 *2877:23 *2877:22 1.308929
5 *2877:24 *2877:23 0.5
6 *2877:24 *2877:20 5.133036
7 *2877:21 *170:A2 0.09166668
8 *2877:22 *2877:21 1
9 *2877:19 *2877:18 0.255
10 *2877:19 *2877:16 1.580357
11 *2877:20 *2877:19 0.5
12 *2877:17 *489:A4 0.1716667
13 *2877:18 *2877:17 1
14 *2877:16 *2877:15 0.5
15 *2877:15 *2877:14 0.7660714
16 *2877:13 *2877:12 1.0375
17 *2877:14 *2877:13 0.5
18 *2877:12 *488:A 1
19 *2877:7 *170:A1 1.076
20 *2877:7 *2877:6 0.228
21 *2877:10 *2877:9 0.08000001
22 *2877:9 *2877:8 0.6080001
23 *2877:11 *2877:10 0.5960001
24 *2877:11 *2877:7 0.304
25 *2877:6 *2877:5 0.08000001
26 *2877:28 *2877:27 1
27 *2877:28 *2877:11 0.03609091

*END

*D_NET *2884 1.920172 //LENGTH 21.036 LUMPCC 0 DR

*CONN
*I *433:Y O *L 0 *C 43.760 32.664
*I *494:A3 I *L 0.456834 *C 45.736 42.696
*I *169:A5 I *L 0.542358 *C 46.040 44.064
*I *490:A3 I *L 0.465144 *C 46.800 42.544
*I *492:A5 I *L 0.542358 *C 43.456 46.192
*I *496:A2 I *L 0.516516 *C 43.912 41.632
*N *2884:6 *C 43.899 41.632
*N *2884:7 *C 43.456 46.178
*N *2884:8 *C 43.456 45.736
*N *2884:9 *C 43.608 45.736
*N *2884:10 *C 46.800 42.531
*N *2884:11 *C 46.800 42.102
*N *2884:12 *C 46.787 42.088
*N *2884:13 *C 46.040 44.052
*N *2884:14 *C 46.040 43.912
*N *2884:15 *C 46.027 43.912
*N *2884:16 *C 45.750 43.912
*N *2884:17 *C 45.736 43.899
*N *2884:18 *C 45.736 42.696
*N *2884:19 *C 45.736 42.102
*N *2884:20 *C 45.736 42.088
*N *2884:21 *C 43.622 42.088
*N *2884:22 *C 43.608 42.088
*N *2884:23 *C 43.608 41.632
*N *2884:24 *C 43.608 37.528
*N *2884:25 *C 43.760 37.528
*N *2884:26 *C 43.760 32.678

*CAP
0 *433:Y 0.001
1 *494:A3 0.001
2 *169:A5 0.001
3 *490:A3 0.001
4 *492:A5 0.001
5 *496:A2 0.001
6 *2884:6 0.01108086
7 *2884:7 0.02838155
8 *2884:8 0.03858713
9 *2884:9 0.1711076
10 *2884:10 0.02866969
11 *2884:11 0.02981323
12 *2884:12 0.04177528
13 *2884:13 0.01228558
14 *2884:14 0.01342911
15 *2884:15 0.01625672
16 *2884:16 0.01625672
17 *2884:17 0.06549232
18 *2884:18 0.0988205
19 *2884:19 0.03269266
20 *2884:20 0.1277944
21 *2884:21 0.08424006
22 *2884:22 0.1854844
23 *2884:23 0.2353418
24 *2884:24 0.2049952
25 *2884:25 0.2408428
26 *2884:26 0.2308245

*RES
0 *433:Y *2884:26 1
1 *2884:11 *2884:10 0.7660714
2 *2884:12 *2884:11 0.5
3 *2884:10 *490:A3 1
4 *2884:17 *2884:16 0.5
5 *2884:16 *2884:15 0.4946429
6 *2884:14 *2884:13 0.2325
7 *2884:15 *2884:14 0.5
8 *2884:13 *169:A5 1
9 *2884:18 *494:A3 1
10 *2884:18 *2884:17 2.147322
11 *2884:19 *2884:18 1.061607
12 *2884:20 *2884:19 0.5
13 *2884:20 *2884:12 1.875893
14 *2884:6 *496:A2 1
15 *2884:26 *2884:25 8.661608
16 *2884:22 *2884:21 0.5
17 *2884:22 *2884:9 6.514287
18 *2884:21 *2884:20 3.775893
19 *2884:7 *492:A5 1
20 *2884:8 *2884:7 0.7901786
21 *2884:9 *2884:8 0.2714286
22 *2884:24 *2884:23 7.328571
23 *2884:23 *2884:22 0.8142858
24 *2884:23 *2884:6 0.5187501
25 *2884:25 *2884:24 0.2714286

*END

*D_NET *2889 1.168856 //LENGTH 12.721 LUMPCC 0 DR

*CONN
*I *415:QN O *L 0 *C 34.944 28.864
*I *424:A3 I *L 0.449356 *C 40.264 29.320
*I *419:A3 I *L 0.449356 *C 41.328 27.496
*I *473:A2 I *L 0.466516 *C 42.975 29.345
*I *427:A2 I *L 0.55521 *C 41.480 30.992
*N *2889:5 *C 41.480 30.979
*N *2889:6 *C 41.480 29.320
*N *2889:7 *C 41.328 29.320
*N *2889:8 *C 41.328 29.320
*N *2889:9 *C 41.328 27.510
*N *2889:10 *C 41.328 29.016
*N *2889:11 *C 41.315 29.016
*N *2889:12 *C 40.264 29.306
*N *2889:13 *C 40.264 29.030
*N *2889:14 *C 40.264 29.016
*N *2889:15 *C 34.958 29.016
*N *2889:16 *C 34.944 29.003
*N *2889:17 *C 34.944 28.865

*CAP
0 *415:QN 0.001
1 *424:A3 0.001
2 *419:A3 0.001
3 *473:A2 0.07550349
4 *427:A2 0.001
5 *2889:5 0.1004784
6 *2889:6 0.1118962
7 *2889:7 0.08037166
8 *2889:8 0.02665057
9 *2889:9 0.08314483
10 *2889:10 0.1040379
11 *2889:11 0.04690452
12 *2889:12 0.02238267
13 *2889:13 0.02352621
14 *2889:14 0.2617221
15 *2889:15 0.2130385
16 *2889:16 0.008171027
17 *2889:17 0.007027496

*RES
0 *415:QN *2889:17 1
1 *2889:5 *427:A2 1
2 *2889:7 *473:A2 3.294
3 *2889:8 *2889:7 1
4 *2889:8 *2889:6 0.2714286
5 *2889:9 *419:A3 1
6 *2889:10 *2889:9 2.690179
7 *2889:10 *2889:8 0.5428571
8 *2889:11 *2889:10 0.5
9 *2889:13 *2889:12 0.4946429
10 *2889:14 *2889:13 0.5
11 *2889:14 *2889:11 1.875893
12 *2889:12 *424:A3 1
13 *2889:16 *2889:15 0.5
14 *2889:15 *2889:14 9.475893
15 *2889:17 *2889:16 0.2455357
16 *2889:6 *2889:5 2.961608

*END

*D_NET *2895 0.8185653 //LENGTH 10.104 LUMPCC 0 DR

*CONN
*I *417:Q O *L 0 *C 40.416 35.704
*I *442:A2 I *L 0.578798 *C 43.912 37.528
*I *320:A5 I *L 0.551519 *C 45.584 36.160
*I *320:A3 I *L 0.536755 *C 45.736 35.704
*I *320:A1 I *L 0.483711 *C 46.344 36.008
*N *2895:5 *C 46.344 36.022
*N *2895:6 *C 46.344 36.299
*N *2895:7 *C 46.331 36.312
*N *2895:8 *C 45.736 35.718
*N *2895:9 *C 45.736 36.312
*N *2895:10 *C 45.584 36.172
*N *2895:11 *C 45.585 36.312
*N *2895:12 *C 45.584 36.312
*N *2895:13 *C 45.584 36.616
*N *2895:14 *C 43.912 37.515
*N *2895:15 *C 43.912 36.630
*N *2895:16 *C 43.912 36.616
*N *2895:17 *C 40.430 36.616
*N *2895:18 *C 40.416 36.602
*N *2895:19 *C 40.416 35.718

*CAP
0 *417:Q 0.001
1 *442:A2 0.001
2 *320:A5 0.001
3 *320:A3 0.001
4 *320:A1 0.001
5 *2895:5 0.01916173
6 *2895:6 0.02030526
7 *2895:7 0.02834265
8 *2895:8 0.03012739
9 *2895:9 0.04017505
10 *2895:10 0.01306698
11 *2895:11 0.02133561
12 *2895:12 0.0390665
13 *2895:13 0.06864254
14 *2895:14 0.05557992
15 *2895:15 0.05672345
16 *2895:16 0.1911207
17 *2895:17 0.133202
18 *2895:18 0.0489295
19 *2895:19 0.04778596

*RES
0 *417:Q *2895:19 1
1 *2895:6 *2895:5 0.4946429
2 *2895:7 *2895:6 0.5
3 *2895:5 *320:A1 1
4 *2895:8 *320:A3 1
5 *2895:11 *2895:10 0.2325
6 *2895:11 *2895:9 0.2696429
7 *2895:12 *2895:11 0.5
8 *2895:12 *2895:7 1.333036
9 *2895:10 *320:A5 1
10 *2895:15 *2895:14 1.580357
11 *2895:16 *2895:15 0.5
12 *2895:16 *2895:13 2.985714
13 *2895:14 *442:A2 1
14 *2895:18 *2895:17 0.5
15 *2895:17 *2895:16 6.21875
16 *2895:19 *2895:18 1.580357
17 *2895:9 *2895:8 1.061607
18 *2895:13 *2895:12 0.5428572

*END

*D_NET *2899 0.7603726 //LENGTH 8.898 LUMPCC 0 DR

*CONN
*I *415:Q O *L 0 *C 35.096 29.016
*I *425:A1 I *L 0.545966 *C 40.416 30.840
*I *426:A1 I *L 0.549073 *C 40.994 29.041
*N *2899:3 *C 40.583 29.016
*N *2899:4 *C 40.568 29.030
*N *2899:5 *C 40.568 29.306
*N *2899:6 *C 40.555 29.320
*N *2899:7 *C 40.416 30.827
*N *2899:8 *C 40.416 30.245
*N *2899:9 *C 40.404 30.232
*N *2899:10 *C 40.264 30.232
*N *2899:11 *C 40.264 30.219
*N *2899:12 *C 40.264 29.334
*N *2899:13 *C 40.264 29.320
*N *2899:14 *C 35.110 29.320
*N *2899:15 *C 35.096 29.306
*N *2899:16 *C 35.096 29.030

*CAP
0 *415:Q 0.001
1 *425:A1 0.001
2 *426:A1 0.02557593
3 *2899:3 0.0239818
4 *2899:4 0.02144993
5 *2899:5 0.02126502
6 *2899:6 0.01461119
7 *2899:7 0.03498558
8 *2899:8 0.03612912
9 *2899:9 0.01206517
10 *2899:10 0.01206527
11 *2899:11 0.03847038
12 *2899:12 0.03847038
13 *2899:13 0.2340177
14 *2899:14 0.2176274
15 *2899:15 0.01440059
16 *2899:16 0.01325706

*RES
0 *415:Q *2899:16 1
1 *2899:5 *2899:4 0.4946429
2 *2899:6 *2899:5 0.5
3 *2899:3 *426:A1 0.822
4 *2899:4 *2899:3 1
5 *2899:13 *2899:12 0.5
6 *2899:13 *2899:6 0.5187501
7 *2899:12 *2899:11 1.580357
8 *2899:10 *2899:9 0.2325
9 *2899:11 *2899:10 0.5
10 *2899:8 *2899:7 1.0375
11 *2899:9 *2899:8 0.5
12 *2899:7 *425:A1 1
13 *2899:15 *2899:14 0.5
14 *2899:14 *2899:13 9.204465
15 *2899:16 *2899:15 0.4946429

*END

*D_NET *2903 1.46216 //LENGTH 14.869 LUMPCC 0 DR

*CONN
*I *411:Q O *L 0 *C 37.376 41.176
*I *491:A2 I *L 0.509119 *C 41.480 45.736
*I *495:A2 I *L 0.516516 *C 43.912 41.936
*I *496:A6 I *L 0.639573 *C 44.672 41.328
*N *2903:4 *C 44.672 41.315
*N *2903:5 *C 44.672 40.886
*N *2903:6 *C 44.659 40.872
*N *2903:7 *C 43.913 41.936
*N *2903:8 *C 44.216 41.936
*N *2903:9 *C 44.216 40.886
*N *2903:10 *C 44.216 40.872
*N *2903:11 *C 41.480 45.723
*N *2903:12 *C 41.480 40.886
*N *2903:13 *C 41.480 40.872
*N *2903:14 *C 37.390 40.872
*N *2903:15 *C 37.376 40.886
*N *2903:16 *C 37.376 41.163

*CAP
0 *411:Q 0.001
1 *491:A2 0.001
2 *495:A2 0.001
3 *496:A6 0.001
4 *2903:4 0.02775537
5 *2903:5 0.02889891
6 *2903:6 0.02108845
7 *2903:7 0.010312
8 *2903:8 0.07409132
9 *2903:9 0.05907773
10 *2903:10 0.1434063
11 *2903:11 0.3085119
12 *2903:12 0.3096554
13 *2903:13 0.2854932
14 *2903:14 0.1631753
15 *2903:15 0.01391898
16 *2903:16 0.01277545

*RES
0 *411:Q *2903:16 1
1 *2903:5 *2903:4 0.7660714
2 *2903:6 *2903:5 0.5
3 *2903:4 *496:A6 1
4 *2903:9 *2903:8 1.875893
5 *2903:10 *2903:9 0.5
6 *2903:10 *2903:6 0.7901786
7 *2903:7 *495:A2 1
8 *2903:12 *2903:11 8.637501
9 *2903:13 *2903:12 0.5
10 *2903:13 *2903:10 4.885715
11 *2903:11 *491:A2 1
12 *2903:15 *2903:14 0.5
13 *2903:14 *2903:13 7.304465
14 *2903:16 *2903:15 0.4946429
15 *2903:8 *2903:7 0.5410715

*END

*D_NET *2906 0.5497244 //LENGTH 6.440 LUMPCC 0 DR

*CONN
*I *475:Y O *L 0 *C 44.186 29.168
*I *415:D I *L 0.543562 *C 38.744 29.472
*N *2906:2 *C 38.744 29.472
*N *2906:3 *C 38.744 29.612
*N *2906:4 *C 38.758 29.624
*N *2906:5 *C 43.747 29.624
*N *2906:6 *C 43.760 29.611
*N *2906:7 *C 43.760 29.181
*N *2906:8 *C 43.775 29.168

*CAP
0 *475:Y 0.02851197
1 *415:D 0.001
2 *2906:2 0.00932279
3 *2906:3 0.01046632
4 *2906:4 0.2123929
5 *2906:5 0.2123929
6 *2906:6 0.02426733
7 *2906:7 0.02445224
8 *2906:8 0.02691784

*RES
0 *475:Y *2906:8 0.8220001
1 *2906:2 *415:D 1
2 *2906:3 *2906:2 0.2325
3 *2906:4 *2906:3 0.5
4 *2906:6 *2906:5 0.5
5 *2906:5 *2906:4 8.908929
6 *2906:8 *2906:7 1
7 *2906:7 *2906:6 0.7660714

*END

*D_NET *2908 0.2430146 //LENGTH 3.066 LUMPCC 0 DR

*CONN
*I *506:Y O *L 0 *C 40.416 12.752
*I *508:A2 I *L 0.538095 *C 39.808 10.624
*N *2908:2 *C 39.808 10.638
*N *2908:3 *C 39.808 11.370
*N *2908:4 *C 39.822 11.384
*N *2908:5 *C 40.403 11.384
*N *2908:6 *C 40.416 11.398
*N *2908:7 *C 40.416 12.739

*CAP
0 *506:Y 0.001
1 *508:A2 0.001
2 *2908:2 0.04265637
3 *2908:3 0.04379991
4 *2908:4 0.02683254
5 *2908:5 0.02683254
6 *2908:6 0.05101839
7 *2908:7 0.04987486

*RES
0 *506:Y *2908:7 1
1 *2908:2 *508:A2 1
2 *2908:3 *2908:2 1.308929
3 *2908:4 *2908:3 0.5
4 *2908:6 *2908:5 0.5
5 *2908:5 *2908:4 1.0375
6 *2908:7 *2908:6 2.394643

*END

*D_NET *2911 0.2147478 //LENGTH 2.767 LUMPCC 0 DR

*CONN
*I *204:Y O *L 0 *C 7.128 9.408
*I *205:A3 I *L 0.539281 *C 6.368 11.080
*N *2911:2 *C 6.368 11.067
*N *2911:3 *C 6.368 9.574
*N *2911:4 *C 6.381 9.560
*N *2911:5 *C 7.115 9.560
*N *2911:6 *C 7.128 9.548
*N *2911:7 *C 7.128 9.408

*CAP
0 *204:Y 0.001
1 *205:A3 0.001
2 *2911:2 0.06920243
3 *2911:3 0.07034596
4 *2911:4 0.02922699
5 *2911:5 0.02922699
6 *2911:6 0.007944486
7 *2911:7 0.006800955

*RES
0 *204:Y *2911:7 1
1 *2911:2 *205:A3 1
2 *2911:3 *2911:2 2.666071
3 *2911:4 *2911:3 0.5
4 *2911:6 *2911:5 0.5
5 *2911:5 *2911:4 1.308929
6 *2911:7 *2911:6 0.2325

*END

*D_NET *2914 0.2772435 //LENGTH 2.914 LUMPCC 0 DR

*CONN
*I *210:Y O *L 0 *C 29.472 42.240
*I *236:A5 I *L 0.557577 *C 28.256 40.872
*N *2914:2 *C 28.256 40.886
*N *2914:3 *C 28.256 41.771
*N *2914:4 *C 28.270 41.784
*N *2914:5 *C 29.459 41.784
*N *2914:6 *C 29.472 41.797
*N *2914:7 *C 29.472 42.227

*CAP
0 *210:Y 0.001
1 *236:A5 0.001
2 *2914:2 0.05347781
3 *2914:3 0.05462134
4 *2914:4 0.05974539
5 *2914:5 0.05974539
6 *2914:6 0.02439857
7 *2914:7 0.02325504

*RES
0 *210:Y *2914:7 1
1 *2914:2 *236:A5 1
2 *2914:3 *2914:2 1.580357
3 *2914:4 *2914:3 0.5
4 *2914:6 *2914:5 0.5
5 *2914:5 *2914:4 2.123214
6 *2914:7 *2914:6 0.7660714

*END

*D_NET *2917 1.1025 //LENGTH 12.946 LUMPCC 0 DR

*CONN
*I *81:Y O *L 0 *C 37.072 10.472
*I *86:A5 I *L 0.542358 *C 33.424 19.440
*N *2917:2 *C 33.424 19.427
*N *2917:3 *C 33.424 17.782
*N *2917:4 *C 33.438 17.768
*N *2917:5 *C 37.059 17.768
*N *2917:6 *C 37.072 17.755
*N *2917:7 *C 37.072 10.486

*CAP
0 *81:Y 0.001
1 *86:A5 0.001
2 *2917:2 0.09430106
3 *2917:3 0.09544458
4 *2917:4 0.1679036
5 *2917:5 0.1679036
6 *2917:6 0.2880451
7 *2917:7 0.2869016

*RES
0 *81:Y *2917:7 1
1 *2917:2 *86:A5 1
2 *2917:3 *2917:2 2.9375
3 *2917:4 *2917:3 0.5
4 *2917:6 *2917:5 0.5
5 *2917:5 *2917:4 6.466072
6 *2917:7 *2917:6 12.98036

*END

*D_NET *2920 0.3591893 //LENGTH 4.103 LUMPCC 0 DR

*CONN
*I *86:Y O *L 0 *C 32.754 19.592
*I *105:A4 I *L 0.443333 *C 29.472 19.288
*N *2920:2 *C 32.512 19.410
*N *2920:3 *C 29.472 19.302
*N *2920:4 *C 29.472 19.579
*N *2920:5 *C 29.486 19.592
*N *2920:6 *C 32.498 19.592
*N *2920:7 *C 32.512 19.579
*N *2920:8 *C 32.527 19.592

*CAP
0 *86:Y 0.01569067
1 *105:A4 0.001
2 *2920:2 0.01613073
3 *2920:3 0.01680746
4 *2920:4 0.01795099
5 *2920:5 0.1323777
6 *2920:6 0.1323777
7 *2920:7 0.01275757
8 *2920:8 0.01409655

*RES
0 *86:Y *2920:8 0.454
1 *2920:3 *105:A4 1
2 *2920:4 *2920:3 0.4946429
3 *2920:5 *2920:4 0.5
4 *2920:7 *2920:6 0.5
5 *2920:7 *2920:2 0.2825
6 *2920:6 *2920:5 5.380357
7 *2920:8 *2920:7 1

*END

*D_NET *2551 1.568255 //LENGTH 17.341 LUMPCC 0 DR

*CONN
*I *500:Y O *L 0 *C 22.024 36.160
*I *109:A3 I *L 0.507548 *C 20.352 43.304
*I *63:A5 I *L 0.566579 *C 19.592 46.040
*I *61:A5 I *L 0.583269 *C 18.376 42.696
*I *59:A3 I *L 0.507548 *C 16.704 43.304
*N *2551:5 *C 16.704 43.291
*N *2551:6 *C 16.704 42.710
*N *2551:7 *C 16.718 42.696
*N *2551:8 *C 18.376 42.564
*N *2551:9 *C 18.376 42.684
*N *2551:10 *C 18.376 42.696
*N *2551:11 *C 19.591 46.040
*N *2551:12 *C 19.440 46.040
*N *2551:13 *C 19.440 42.710
*N *2551:14 *C 19.440 42.696
*N *2551:15 *C 20.352 43.291
*N *2551:16 *C 20.352 42.710
*N *2551:17 *C 20.352 42.696
*N *2551:18 *C 22.011 42.696
*N *2551:19 *C 22.024 42.683
*N *2551:20 *C 22.024 36.174

*CAP
0 *500:Y 0.001
1 *109:A3 0.001
2 *63:A5 0.001
3 *61:A5 0.001
4 *59:A3 0.001
5 *2551:5 0.04436835
6 *2551:6 0.04551188
7 *2551:7 0.06921907
8 *2551:8 0.01331452
9 *2551:9 0.007130387
10 *2551:10 0.1123166
11 *2551:11 0.004736094
12 *2551:12 0.1891211
13 *2551:13 0.1796834
14 *2551:14 0.08195333
15 *2551:15 0.03845648
16 *2551:16 0.03960001
17 *2551:17 0.109001
18 *2551:18 0.06984869
19 *2551:19 0.2800688
20 *2551:20 0.2789253

*RES
0 *500:Y *2551:20 1
1 *2551:19 *2551:18 0.5
2 *2551:18 *2551:17 2.961607
3 *2551:20 *2551:19 11.62321
4 *2551:16 *2551:15 1.0375
5 *2551:17 *2551:16 0.5
6 *2551:17 *2551:14 1.628572
7 *2551:15 *109:A3 1
8 *2551:13 *2551:12 5.947322
9 *2551:14 *2551:13 0.5
10 *2551:14 *2551:10 1.9
11 *2551:11 *63:A5 1
12 *2551:9 *61:A5 1
13 *2551:9 *2551:8 0.1991667
14 *2551:10 *2551:9 0.5
15 *2551:10 *2551:7 2.961607
16 *2551:6 *2551:5 1.0375
17 *2551:7 *2551:6 0.5
18 *2551:5 *59:A3 1
19 *2551:12 *2551:11 0.2696429

*END

*D_NET *3 3.353764 //LENGTH 50.082 LUMPCC 0 DR

*CONN
*P *3 I *L 0 *C 52.454 1.960
*I *466:A2 I *L 0.577157 *C 24.152 19.136
*I *382:A2 I *L 0.501039 *C 23.392 22.328
*N *3:3 *C 23.392 22.315
*N *3:4 *C 23.392 19.302
*N *3:5 *C 23.405 19.288
*N *3:6 *C 24.152 19.136
*N *3:7 *C 24.152 19.276
*N *3:8 *C 24.152 19.288
*N *3:9 *C 27.178 19.288
*N *3:10 *C 27.192 19.274
*N *3:11 *C 27.192 1.974
*N *3:12 *C 27.206 1.960

*CAP
0 *3 0.7312357
1 *466:A2 0.001
2 *382:A2 0.001
3 *3:3 0.1949332
4 *3:4 0.1960767
5 *3:5 0.03007379
6 *3:6 0.01657644
7 *3:7 0.01771997
8 *3:8 0.1550889
9 *3:9 0.1232362
10 *3:10 0.578683
11 *3:11 0.578683
12 *3:12 0.7294567

*RES
0 *3 *3:12 45.08661
1 *3:9 *3:8 5.404465
2 *3:10 *3:9 0.5
3 *3:12 *3:11 0.5
4 *3:11 *3:10 30.89464
5 *3:7 *3:6 0.2325
6 *3:8 *3:7 0.5
7 *3:8 *3:5 1.333036
8 *3:6 *466:A2 1
9 *3:4 *3:3 5.380358
10 *3:5 *3:4 0.5
11 *3:3 *382:A2 1

*END

*D_NET *6 0.4307528 //LENGTH 5.709 LUMPCC 0 DR

*CONN
*P *6 I *L 0 *C 6.216 0.258
*I *377:A I *L 5.304077 *C 6.216 5.912
*N *6:2 *C 6.216 5.899

*CAP
0 *6 0.2163377
1 *377:A 0.001
2 *6:2 0.2134151

*RES
0 *6 *6:2 10.07232
1 *6:2 *377:A 1

*END

*D_NET *7 0.9476533 //LENGTH 13.313 LUMPCC 0 DR

*CONN
*P *7 I *L 0 *C 52.454 29.928
*I *485:A4 I *L 0.554348 *C 46.192 32.360
*I *471:A1 I *L 0.53794 *C 46.025 30.840
*I *480:A3 I *L 0.519105 *C 47.408 34.336
*N *7:4 *C 47.408 34.323
*N *7:5 *C 45.901 30.840
*N *7:6 *C 45.888 30.854
*N *7:7 *C 45.888 32.346
*N *7:8 *C 45.902 32.360
*N *7:9 *C 46.192 32.178
*N *7:10 *C 46.192 32.348
*N *7:11 *C 46.192 32.360
*N *7:12 *C 47.395 32.360
*N *7:13 *C 47.408 32.360
*N *7:14 *C 47.408 29.942
*N *7:15 *C 47.422 29.928

*CAP
0 *7 0.1431654
1 *485:A4 0.001
2 *471:A1 0.01276742
3 *480:A3 0.001
4 *7:4 0.06943208
5 *7:5 0.01117329
6 *7:6 0.08539673
7 *7:7 0.08521182
8 *7:8 0.01093688
9 *7:9 0.01919451
10 *7:10 0.01449291
11 *7:11 0.04922346
12 *7:12 0.03650754
13 *7:13 0.1695597
14 *7:14 0.09720509
15 *7:15 0.1413864

*RES
0 *7 *7:15 8.986609
1 *7:4 *480:A3 1
2 *7:14 *7:13 4.31875
3 *7:15 *7:14 0.5
4 *7:13 *7:12 0.5
5 *7:13 *7:4 3.504465
6 *7:12 *7:11 2.147322
7 *7:10 *485:A4 1
8 *7:10 *7:9 0.2825
9 *7:11 *7:10 0.5
10 *7:11 *7:8 0.5187501
11 *7:7 *7:6 2.666071
12 *7:8 *7:7 0.5
13 *7:5 *471:A1 0.2075
14 *7:6 *7:5 1

*END

*D_NET *13 0.3732561 //LENGTH 5.669 LUMPCC 0 DR

*CONN
*I *132:Y O *L 0 *C 10.472 46.192
*P *13 O *L 0.05 *C 10.320 51.542
*N *13:2 *C 10.320 46.952
*N *13:3 *C 10.472 46.952
*N *13:4 *C 10.472 46.206

*CAP
0 *132:Y 0.001
1 *13 0.1457499
2 *13:2 0.1521097
3 *13:3 0.04183947
4 *13:4 0.03255706

*RES
0 *132:Y *13:4 1
1 *13:4 *13:3 1.333036
2 *13:2 *13 8.196428
3 *13:3 *13:2 0.2714286

*END

*D_NET *16 2.508864 //LENGTH 42.305 LUMPCC 0 DR

*CONN
*I *58:Y O *L 0 *C 33.272 26.280
*P *16 O *L 0.05 *C 49.688 51.542
*N *16:2 *C 33.090 27.496
*N *16:3 *C 49.688 50.918
*N *16:4 *C 49.675 50.904
*N *16:5 *C 33.285 50.904
*N *16:6 *C 33.272 50.891
*N *16:7 *C 33.272 27.510
*N *16:8 *C 33.260 27.496
*N *16:9 *C 33.272 27.483
*N *16:10 *C 33.272 26.294

*CAP
0 *58:Y 0.001
1 *16 0.02170632
2 *16:2 0.01277998
3 *16:3 0.01992729
4 *16:4 0.4269251
5 *16:5 0.4269252
6 *16:6 0.7306165
7 *16:7 0.7306165
8 *16:8 0.009222013
9 *16:9 0.06514414
10 *16:10 0.06400062

*RES
0 *58:Y *16:10 1
1 *16:10 *16:9 2.123214
2 *16:9 *16:8 0.5
3 *16:8 *16:7 0.5
4 *16:8 *16:2 0.2825
5 *16:7 *16:6 41.75179
6 *16:5 *16:4 29.26607
7 *16:6 *16:5 0.5
8 *16:3 *16 1.115179
9 *16:4 *16:3 0.5

*END

*D_NET *18 0.5385865 //LENGTH 8.209 LUMPCC 0 DR

*CONN
*I *131:Y O *L 0 *C 30.840 6.064
*P *18 O *L 0.05 *C 28.712 0.258
*N *18:2 *C 28.712 5.291
*N *18:3 *C 28.726 5.304
*N *18:4 *C 30.827 5.304
*N *18:5 *C 30.840 5.317
*N *18:6 *C 30.840 6.051

*CAP
0 *131:Y 0.001
1 *18 0.1642286
2 *18:2 0.1624496
3 *18:3 0.07645352
4 *18:4 0.07645352
5 *18:5 0.02957236
6 *18:6 0.02842883

*RES
0 *131:Y *18:6 1
1 *18:6 *18:5 1.308929
2 *18:5 *18:4 0.5
3 *18:4 *18:3 3.751786
4 *18:2 *18 8.986609
5 *18:3 *18:2 0.5

*END

*D_NET *22 3.73564 //LENGTH 66.038 LUMPCC 0 DR

*CONN
*I *65:Y O *L 0 *C 35.704 7.888
*I *66:A I *L 0.582888 *C 37.680 5.912
*P *22 O *L 0.05 *C 0.258 32.968
*N *22:3 *C 2.251 32.968
*N *22:4 *C 2.264 32.955
*N *22:5 *C 2.264 11.702
*N *22:6 *C 2.278 11.688
*N *22:7 *C 36.299 11.688
*N *22:8 *C 36.312 11.675
*N *22:9 *C 37.680 5.926
*N *22:10 *C 37.680 6.203
*N *22:11 *C 37.666 6.216
*N *22:12 *C 36.326 6.216
*N *22:13 *C 36.312 6.230
*N *22:14 *C 36.312 7.736
*N *22:15 *C 36.299 7.736
*N *22:16 *C 35.718 7.736
*N *22:17 *C 35.704 7.750
*N *22:18 *C 35.704 7.887

*CAP
0 *65:Y 0.001
1 *66:A 0.001
2 *22 0.07162811
3 *22:3 0.06984917
4 *22:4 0.5632884
5 *22:5 0.5632886
6 *22:6 0.9210729
7 *22:7 0.9210729
8 *22:8 0.1306772
9 *22:9 0.01327973
10 *22:10 0.01442326
11 *22:11 0.07014944
12 *22:12 0.07014954
13 *22:13 0.05717606
14 *22:14 0.189632
15 *22:15 0.03106854
16 *22:16 0.03106844
17 *22:17 0.008479656
18 *22:18 0.007336124

*RES
0 *65:Y *22:18 1
1 *22:12 *22:11 2.394643
2 *22:13 *22:12 0.5
3 *22:10 *22:9 0.4946429
4 *22:11 *22:10 0.5
5 *22:9 *66:A 1
6 *22:15 *22:14 0.5
7 *22:14 *22:13 2.690179
8 *22:14 *22:8 7.033036
9 *22:17 *22:16 0.5
10 *22:16 *22:15 1.0375
11 *22:18 *22:17 0.2455357
12 *22:8 *22:7 0.5
13 *22:7 *22:6 60.75178
14 *22:5 *22:4 37.95179
15 *22:6 *22:5 0.5
16 *22:3 *22 3.558036
17 *22:4 *22:3 0.5

*END

*D_NET *30 1.319203 //LENGTH 19.227 LUMPCC 0 DR

*CONN
*I *59:Y O *L 0 *C 15.792 42.240
*I *60:A I *L 0.582888 *C 10.928 46.040
*P *30 O *L 0.05 *C 6.368 51.542
*N *30:3 *C 6.368 46.358
*N *30:4 *C 6.381 46.344
*N *30:5 *C 10.928 46.344
*N *30:6 *C 10.928 46.041
*N *30:7 *C 10.928 46.027
*N *30:8 *C 10.928 43.014
*N *30:9 *C 10.942 43.000
*N *30:10 *C 15.779 43.000
*N *30:11 *C 15.792 42.986
*N *30:12 *C 15.792 42.241

*CAP
0 *59:Y 0.001
1 *60:A 0.001
2 *30 0.1761886
3 *30:3 0.1744096
4 *30:4 0.1261481
5 *30:5 0.1378178
6 *30:6 0.008111641
7 *30:7 0.1157904
8 *30:8 0.118713
9 *30:9 0.1999231
10 *30:10 0.1999231
11 *30:11 0.03066042
12 *30:12 0.02951689

*RES
0 *59:Y *30:12 1
1 *30:7 *60:A 1
2 *30:7 *30:6 0.5
3 *30:8 *30:7 5.380358
4 *30:9 *30:8 0.5
5 *30:11 *30:10 0.5
6 *30:10 *30:9 8.637501
7 *30:12 *30:11 1.33125
8 *30:6 *30:5 0.5410715
9 *30:3 *30 9.258036
10 *30:4 *30:3 0.5
11 *30:5 *30:4 8.118751

*END

*D_NET *36 0.4559809 //LENGTH 7.297 LUMPCC 0 DR

*CONN
*I *121:Y O *L 0 *C 33.880 6.064
*P *36 O *L 0.05 *C 35.096 0.258
*N *36:2 *C 35.096 0.427
*N *36:3 *C 35.083 0.440
*N *36:4 *C 33.894 0.440
*N *36:5 *C 33.880 0.454
*N *36:6 *C 33.880 6.051

*CAP
0 *121:Y 0.001
1 *36 0.008741826
2 *36:2 0.006962792
3 *36:3 0.03412975
4 *36:4 0.03412975
5 *36:5 0.1860801
6 *36:6 0.1849366

*RES
0 *121:Y *36:6 1
1 *36:6 *36:5 9.994644
2 *36:5 *36:4 0.5
3 *36:4 *36:3 2.123214
4 *36:2 *36 0.3008929
5 *36:3 *36:2 0.5

*END

*D_NET *2552 2.597926 //LENGTH 42.933 LUMPCC 0 DR

*CONN
*I *222:Q O *L 0 *C 13.816 31.144
*I *312:A2 I *L 0.558881 *C 13.664 32.512
*I *442:A4 I *L 0.565045 *C 44.216 37.528
*I *320:A6 I *L 0.639573 *C 45.432 35.552
*I *499:A I *L 0.561607 *C 46.800 37.528
*N *2552:5 *C 46.800 37.346
*N *2552:6 *C 46.800 37.516
*N *2552:7 *C 46.787 37.528
*N *2552:8 *C 45.432 35.566
*N *2552:9 *C 45.432 37.515
*N *2552:10 *C 45.432 37.528
*N *2552:11 *C 44.216 37.346
*N *2552:12 *C 44.216 37.516
*N *2552:13 *C 44.230 37.528
*N *2552:14 *C 44.216 37.515
*N *2552:15 *C 44.216 34.806
*N *2552:16 *C 44.203 34.792
*N *2552:17 *C 17.782 34.792
*N *2552:18 *C 17.768 34.779
*N *2552:19 *C 17.768 33.894
*N *2552:20 *C 17.755 33.880
*N *2552:21 *C 13.678 33.880
*N *2552:22 *C 13.664 33.867
*N *2552:23 *C 13.664 32.512
*N *2552:24 *C 13.664 31.144
*N *2552:25 *C 13.815 31.144

*CAP
0 *222:Q 0.001
1 *312:A2 0.001
2 *442:A4 0.001
3 *320:A6 0.001
4 *499:A 0.001
5 *2552:5 0.01010457
6 *2552:6 0.005402975
7 *2552:7 0.04839037
8 *2552:8 0.08648513
9 *2552:9 0.08762865
10 *2552:10 0.09773058
11 *2552:11 0.01287318
12 *2552:12 0.008171581
13 *2552:13 0.04578224
14 *2552:14 0.08980681
15 *2552:15 0.08980696
16 *2552:16 0.729785
17 *2552:17 0.729785
18 *2552:18 0.03720347
19 *2552:19 0.03720332
20 *2552:20 0.1345463
21 *2552:21 0.1345462
22 *2552:22 0.04722771
23 *2552:23 0.09691741
24 *2552:24 0.05864246
25 *2552:25 0.004886664

*RES
0 *222:Q *2552:25 1
1 *2552:6 *499:A 1
2 *2552:6 *2552:5 0.2825
3 *2552:7 *2552:6 0.5
4 *2552:9 *2552:8 3.480357
5 *2552:10 *2552:9 0.5
6 *2552:10 *2552:7 2.41875
7 *2552:8 *320:A6 1
8 *2552:12 *442:A4 1
9 *2552:12 *2552:11 0.2825
10 *2552:13 *2552:12 0.5
11 *2552:13 *2552:10 2.147321
12 *2552:25 *2552:24 0.2696429
13 *2552:14 *2552:13 0.5
14 *2552:15 *2552:14 4.8375
15 *2552:16 *2552:15 0.5
16 *2552:18 *2552:17 0.5
17 *2552:17 *2552:16 47.18035
18 *2552:20 *2552:19 0.5
19 *2552:19 *2552:18 1.580357
20 *2552:22 *2552:21 0.5
21 *2552:21 *2552:20 7.280358
22 *2552:23 *312:A2 1
23 *2552:23 *2552:22 2.41875
24 *2552:24 *2552:23 2.442857

*END

*D_NET *2556 6.061167 //LENGTH 64.943 LUMPCC 0 DR

*CONN
*I *430:Y O *L 0 *C 43.608 25.976
*I *376:A I *L 0.582888 *C 23.848 24.152
*I *384:A1 I *L 0.501685 *C 19.288 22.632
*I *391:A1 I *L 0.501685 *C 17.312 15.944
*I *389:A1 I *L 0.501685 *C 17.693 17.464
*I *388:A1 I *L 0.501685 *C 17.312 20.808
*I *387:A1 I *L 0.501685 *C 18.582 24.152
*I *378:A1 I *L 0.501685 *C 22.343 22.632
*I *382:A1 I *L 0.501685 *C 23.225 22.632
*I *385:A1 I *L 0.501685 *C 23.240 17.464
*I *390:A1 I *L 0.501685 *C 23.240 14.120
*I *381:A1 I *L 0.501685 *C 23.240 12.600
*I *386:A1 I *L 0.501685 *C 19.896 12.600
*I *392:A1 I *L 0.501685 *C 17.312 12.600
*I *393:A1 I *L 0.501685 *C 17.541 10.776
*I *380:A1 I *L 0.501685 *C 23.392 15.944
*I *379:A1 I *L 0.501685 *C 20.808 22.632
*I *383:A1 I *L 0.501685 *C 20.200 24.152
*N *2556:18 *C 43.608 25.794
*N *2556:19 *C 20.200 24.139
*N *2556:20 *C 20.200 23.861
*N *2556:21 *C 20.213 23.848
*N *2556:22 *C 23.392 15.958
*N *2556:23 *C 23.392 16.248
*N *2556:24 *C 17.327 10.776
*N *2556:25 *C 17.312 10.790
*N *2556:26 *C 17.312 12.587
*N *2556:27 *C 17.326 12.600
*N *2556:28 *C 19.896 12.418
*N *2556:29 *C 19.896 12.588
*N *2556:30 *C 19.896 12.600
*N *2556:31 *C 23.227 12.600
*N *2556:32 *C 23.240 12.614
*N *2556:33 *C 23.240 14.120
*N *2556:34 *C 23.240 16.248
*N *2556:35 *C 23.240 17.464
*N *2556:36 *C 23.225 22.632
*N *2556:37 *C 23.240 22.619
*N *2556:38 *C 23.239 22.632
*N *2556:39 *C 18.528 24.152
*N *2556:40 *C 18.528 24.139
*N *2556:41 *C 18.528 22.646
*N *2556:42 *C 18.541 22.632
*N *2556:43 *C 17.312 20.794
*N *2556:44 *C 17.479 17.464
*N *2556:45 *C 17.463 17.464
*N *2556:46 *C 17.312 15.958
*N *2556:47 *C 17.312 17.464
*N *2556:48 *C 17.312 20.200
*N *2556:49 *C 17.326 20.200
*N *2556:50 *C 19.274 20.200
*N *2556:51 *C 19.288 20.213
*N *2556:52 *C 19.288 22.619
*N *2556:53 *C 19.288 22.632
*N *2556:54 *C 20.808 22.632
*N *2556:55 *C 20.808 22.646
*N *2556:56 *C 20.808 23.835
*N *2556:57 *C 20.808 23.848
*N *2556:58 *C 23.848 24.139
*N *2556:59 *C 23.848 23.861
*N *2556:60 *C 23.848 23.848
*N *2556:61 *C 25.659 23.848
*N *2556:62 *C 25.672 23.861
*N *2556:63 *C 25.672 25.963
*N *2556:64 *C 25.686 25.976
*N *2556:65 *C 43.595 25.976
*N *2556:66 *C 43.608 25.963

*CAP
0 *430:Y 0.001
1 *376:A 0.001
2 *384:A1 0.001
3 *391:A1 0.001
4 *389:A1 0.0161739
5 *388:A1 0.001
6 *387:A1 0.008051629
7 *378:A1 0.04422696
8 *382:A1 0.001
9 *385:A1 0.001
10 *390:A1 0.001
11 *381:A1 0.001
12 *386:A1 0.001
13 *392:A1 0.001
14 *393:A1 0.01738779
15 *380:A1 0.001
16 *379:A1 0.001
17 *383:A1 0.001
18 *2556:18 0.01696224
19 *2556:19 0.01666696
20 *2556:20 0.01781049
21 *2556:21 0.04001791
22 *2556:22 0.02246819
23 *2556:23 0.03229889
24 *2556:24 0.01579367
25 *2556:25 0.1196769
26 *2556:26 0.1165694
27 *2556:27 0.09793547
28 *2556:28 0.01708163
29 *2556:29 0.01238003
30 *2556:30 0.2409568
31 *2556:31 0.1412423
32 *2556:32 0.08314676
33 *2556:33 0.2055428
34 *2556:34 0.1796341
35 *2556:35 0.3072735
36 *2556:36 0.04130439
37 *2556:37 0.2533855
38 *2556:38 0.09323548
39 *2556:39 0.006457502
40 *2556:40 0.09696776
41 *2556:41 0.09678285
42 *2556:42 0.03069282
43 *2556:43 0.02553194
44 *2556:44 0.01457978
45 *2556:45 0.005837582
46 *2556:46 0.07308094
47 *2556:47 0.1983825
48 *2556:48 0.1416228
49 *2556:49 0.07477023
50 *2556:50 0.07477023
51 *2556:51 0.1274301
52 *2556:52 0.1245076
53 *2556:53 0.09086359
54 *2556:54 0.1534063
55 *2556:55 0.06849705
56 *2556:56 0.0714196
57 *2556:57 0.2293993
58 *2556:58 0.02790195
59 *2556:59 0.02904549
60 *2556:60 0.302803
61 *2556:61 0.1134216
62 *2556:62 0.1018107
63 *2556:63 0.1018107
64 *2556:64 0.7479442
65 *2556:65 0.7479442
66 *2556:66 0.01226064

*RES
0 *430:Y *2556:66 1
1 *2556:62 *2556:61 0.5
2 *2556:61 *2556:60 3.233036
3 *2556:63 *2556:62 3.751786
4 *2556:64 *2556:63 0.5
5 *2556:66 *2556:65 0.5
6 *2556:66 *2556:18 0.2825
7 *2556:65 *2556:64 31.98036
8 *2556:59 *2556:58 0.4946429
9 *2556:60 *2556:59 0.5
10 *2556:60 *2556:57 5.428572
11 *2556:58 *376:A 1
12 *2556:22 *380:A1 1
13 *2556:37 *2556:36 1
14 *2556:37 *2556:35 9.204465
15 *2556:35 *385:A1 1
16 *2556:35 *2556:34 2.171429
17 *2556:33 *390:A1 1
18 *2556:33 *2556:32 2.690179
19 *2556:32 *381:A1 1
20 *2556:32 *2556:31 0.5
21 *2556:38 *2556:37 0.5
22 *2556:56 *2556:55 2.123214
23 *2556:57 *2556:56 0.5
24 *2556:57 *2556:21 1.061607
25 *2556:55 *2556:54 0.5
26 *2556:55 *379:A1 1
27 *2556:54 *2556:53 2.714286
28 *2556:54 *2556:38 4.341072
29 *2556:20 *2556:19 0.4946429
30 *2556:21 *2556:20 0.5
31 *2556:19 *383:A1 1
32 *2556:31 *2556:30 5.947322
33 *2556:29 *386:A1 1
34 *2556:29 *2556:28 0.2825001
35 *2556:30 *2556:29 0.5
36 *2556:30 *2556:27 4.590179
37 *2556:52 *384:A1 1
38 *2556:52 *2556:51 4.294643
39 *2556:53 *2556:52 0.5
40 *2556:53 *2556:42 1.333036
41 *2556:41 *2556:40 2.666071
42 *2556:42 *2556:41 0.5
43 *2556:39 *387:A1 0.09166668
44 *2556:40 *2556:39 1
45 *2556:44 *389:A1 0.4280001
46 *2556:45 *2556:44 1
47 *2556:43 *388:A1 1
48 *2556:51 *2556:50 0.5
49 *2556:50 *2556:49 3.480357
50 *2556:48 *2556:47 4.885715
51 *2556:48 *2556:43 1.061607
52 *2556:49 *2556:48 0.5
53 *2556:46 *391:A1 1
54 *2556:26 *392:A1 1
55 *2556:26 *2556:25 3.208929
56 *2556:27 *2556:26 0.5
57 *2556:24 *393:A1 0.428
58 *2556:25 *2556:24 1
59 *2556:47 *2556:46 2.690179
60 *2556:47 *2556:45 0.2696429
61 *2556:34 *2556:33 3.8
62 *2556:34 *2556:23 0.2714286
63 *2556:23 *2556:22 0.5187501
64 *2556:36 *378:A1 1.7634
65 *2556:36 *382:A1 0.001

*END

*D_NET *2566 0.2879379 //LENGTH 3.066 LUMPCC 0 DR

*CONN
*I *84:Y O *L 0 *C 46.496 7.888
*I *85:A5 I *L 0.542358 *C 45.280 9.408
*N *2566:2 *C 45.280 9.395
*N *2566:3 *C 45.280 8.357
*N *2566:4 *C 45.294 8.344
*N *2566:5 *C 46.483 8.344
*N *2566:6 *C 46.496 8.331
*N *2566:7 *C 46.496 7.902

*CAP
0 *84:Y 0.001
1 *85:A5 0.001
2 *2566:2 0.06449596
3 *2566:3 0.06563948
4 *2566:4 0.05668565
5 *2566:5 0.05668565
6 *2566:6 0.02178735
7 *2566:7 0.02064382

*RES
0 *84:Y *2566:7 1
1 *2566:2 *85:A5 1
2 *2566:3 *2566:2 1.851786
3 *2566:4 *2566:3 0.5
4 *2566:6 *2566:5 0.5
5 *2566:5 *2566:4 2.123214
6 *2566:7 *2566:6 0.7660714

*END

*D_NET *2568 0.4362996 //LENGTH 4.848 LUMPCC 0 DR

*CONN
*I *82:Y O *L 0 *C 43.912 7.280
*I *84:A1 I *L 0.494827 *C 45.280 7.432
*I *85:A1 I *L 0.484201 *C 46.040 9.256
*N *2568:3 *C 46.040 9.242
*N *2568:4 *C 46.040 7.750
*N *2568:5 *C 46.027 7.736
*N *2568:6 *C 45.280 7.446
*N *2568:7 *C 45.280 7.723
*N *2568:8 *C 45.280 7.736
*N *2568:9 *C 43.925 7.736
*N *2568:10 *C 43.912 7.723
*N *2568:11 *C 43.912 7.294

*CAP
0 *82:Y 0.001
1 *84:A1 0.001
2 *85:A1 0.001
3 *2568:3 0.08321445
4 *2568:4 0.08435797
5 *2568:5 0.0323524
6 *2568:6 0.01988668
7 *2568:7 0.02103022
8 *2568:8 0.0935664
9 *2568:9 0.05943496
10 *2568:10 0.0203
11 *2568:11 0.01915647

*RES
0 *82:Y *2568:11 1
1 *2568:4 *2568:3 2.666072
2 *2568:5 *2568:4 0.5
3 *2568:3 *85:A1 1
4 *2568:7 *2568:6 0.4946429
5 *2568:8 *2568:7 0.5
6 *2568:8 *2568:5 1.333036
7 *2568:6 *84:A1 1
8 *2568:10 *2568:9 0.5
9 *2568:9 *2568:8 2.41875
10 *2568:11 *2568:10 0.7660714

*END

*D_NET *2572 0.2821891 //LENGTH 3.375 LUMPCC 0 DR

*CONN
*I *90:Y O *L 0 *C 14.576 45.584
*I *91:A5 I *L 0.542358 *C 17.008 46.192
*N *2572:2 *C 17.008 46.178
*N *2572:3 *C 17.008 45.750
*N *2572:4 *C 16.995 45.736
*N *2572:5 *C 14.590 45.736
*N *2572:6 *C 14.576 45.724
*N *2572:7 *C 14.576 45.584

*CAP
0 *90:Y 0.001
1 *91:A5 0.001
2 *2572:2 0.02377483
3 *2572:3 0.02491836
4 *2572:4 0.1073771
5 *2572:5 0.1073771
6 *2572:6 0.008942587
7 *2572:7 0.007799056

*RES
0 *90:Y *2572:7 1
1 *2572:2 *91:A5 1
2 *2572:3 *2572:2 0.7660714
3 *2572:4 *2572:3 0.5
4 *2572:6 *2572:5 0.5
5 *2572:5 *2572:4 4.294643
6 *2572:7 *2572:6 0.2325

*END

*D_NET *2574 0.8481194 //LENGTH 9.504 LUMPCC 0 DR

*CONN
*I *88:Y O *L 0 *C 12.559 42.843
*I *90:A1 I *L 0.494827 *C 15.792 46.040
*I *91:A1 I *L 0.484201 *C 17.768 46.040
*N *2574:3 *C 17.768 46.027
*N *2574:4 *C 17.768 45.446
*N *2574:5 *C 17.755 45.432
*N *2574:6 *C 15.792 46.027
*N *2574:7 *C 15.792 45.446
*N *2574:8 *C 15.792 45.432
*N *2574:9 *C 12.766 45.432
*N *2574:10 *C 12.752 45.419
*N *2574:11 *C 12.752 42.861
*N *2574:12 *C 12.740 42.848

*CAP
0 *88:Y 0.01564635
1 *90:A1 0.001
2 *91:A1 0.001
3 *2574:3 0.04307937
4 *2574:4 0.0442229
5 *2574:5 0.0825293
6 *2574:6 0.04354795
7 *2574:7 0.04469148
8 *2574:8 0.1974577
9 *2574:9 0.1131494
10 *2574:10 0.1237789
11 *2574:11 0.1239638
12 *2574:12 0.01405223

*RES
0 *88:Y *2574:12 0.3008333
1 *2574:4 *2574:3 1.0375
2 *2574:5 *2574:4 0.5
3 *2574:3 *91:A1 1
4 *2574:7 *2574:6 1.0375
5 *2574:8 *2574:7 0.5
6 *2574:8 *2574:5 3.504465
7 *2574:6 *90:A1 1
8 *2574:10 *2574:9 0.5
9 *2574:9 *2574:8 5.404465
10 *2574:12 *2574:11 1
11 *2574:11 *2574:10 4.566072

*END

*D_NET *2576 0.36358 //LENGTH 4.524 LUMPCC 0 DR

*CONN
*I *93:Y O *L 0 *C 21.720 46.192
*I *94:A1 I *L 0.494827 *C 22.328 46.040
*I *95:A3 I *L 0.539281 *C 24.912 45.736
*N *2576:3 *C 24.912 45.554
*N *2576:4 *C 24.912 45.724
*N *2576:5 *C 24.899 45.736
*N *2576:6 *C 22.328 46.027
*N *2576:7 *C 22.328 45.750
*N *2576:8 *C 22.328 45.736
*N *2576:9 *C 21.733 45.736
*N *2576:10 *C 21.720 45.750
*N *2576:11 *C 21.720 46.178

*CAP
0 *93:Y 0.001
1 *94:A1 0.001
2 *95:A3 0.001
3 *2576:3 0.01572232
4 *2576:4 0.01102072
5 *2576:5 0.1068356
6 *2576:6 0.01676191
7 *2576:7 0.01790544
8 *2576:8 0.1314297
9 *2576:9 0.02281499
10 *2576:10 0.01961643
11 *2576:11 0.0184729

*RES
0 *93:Y *2576:11 1
1 *2576:4 *95:A3 1
2 *2576:4 *2576:3 0.2825
3 *2576:5 *2576:4 0.5
4 *2576:7 *2576:6 0.4946429
5 *2576:8 *2576:7 0.5
6 *2576:8 *2576:5 4.590179
7 *2576:6 *94:A1 1
8 *2576:10 *2576:9 0.5
9 *2576:9 *2576:8 1.061607
10 *2576:11 *2576:10 0.7660714

*END

*D_NET *2579 0.6512507 //LENGTH 7.189 LUMPCC 0 DR

*CONN
*I *97:Y O *L 0 *C 19.288 30.688
*I *98:A3 I *L 0.557478 *C 22.480 30.232
*I *99:A3 I *L 0.539281 *C 24.608 31.144
*N *2579:3 *C 24.622 31.144
*N *2579:4 *C 24.760 31.144
*N *2579:5 *C 24.760 30.854
*N *2579:6 *C 24.747 30.840
*N *2579:7 *C 22.480 30.245
*N *2579:8 *C 22.480 30.827
*N *2579:9 *C 22.480 30.840
*N *2579:10 *C 19.302 30.840
*N *2579:11 *C 19.288 30.828
*N *2579:12 *C 19.288 30.688

*CAP
0 *97:Y 0.001
1 *98:A3 0.001
2 *99:A3 0.001
3 *2579:3 0.005701227
4 *2579:4 0.02878857
5 *2579:5 0.01838574
6 *2579:6 0.1037658
7 *2579:7 0.04089813
8 *2579:8 0.04204166
9 *2579:9 0.2435211
10 *2579:10 0.1379763
11 *2579:11 0.01415784
12 *2579:12 0.01301431

*RES
0 *97:Y *2579:12 1
1 *2579:5 *2579:4 0.51875
2 *2579:6 *2579:5 0.5
3 *2579:3 *99:A3 1
4 *2579:8 *2579:7 1.0375
5 *2579:9 *2579:8 0.5
6 *2579:9 *2579:6 4.047322
7 *2579:7 *98:A3 1
8 *2579:11 *2579:10 0.5
9 *2579:10 *2579:9 5.675893
10 *2579:12 *2579:11 0.2325
11 *2579:4 *2579:3 0.2473214

*END

*D_NET *2583 0.6401533 //LENGTH 7.036 LUMPCC 0 DR

*CONN
*I *100:Y O *L 0 *C 21.416 32.208
*I *103:A1 I *L 0.484201 *C 24.456 34.184
*I *102:A1 I *L 0.494827 *C 25.064 32.664
*N *2583:3 *C 25.064 32.651
*N *2583:4 *C 25.064 32.070
*N *2583:5 *C 25.050 32.056
*N *2583:6 *C 24.456 34.171
*N *2583:7 *C 24.456 32.070
*N *2583:8 *C 24.456 32.056
*N *2583:9 *C 21.733 32.056
*N *2583:10 *C 21.720 32.056
*N *2583:11 *C 21.720 32.196
*N *2583:12 *C 21.705 32.208

*CAP
0 *100:Y 0.01596643
1 *103:A1 0.001
2 *102:A1 0.001
3 *2583:3 0.0349825
4 *2583:4 0.03612604
5 *2583:5 0.02743829
6 *2583:6 0.1157731
7 *2583:7 0.1169166
8 *2583:8 0.1370615
9 *2583:9 0.1078441
10 *2583:10 0.01574379
11 *2583:11 0.0159287
12 *2583:12 0.0143723

*RES
0 *100:Y *2583:12 0.5780001
1 *2583:4 *2583:3 1.0375
2 *2583:5 *2583:4 0.5
3 *2583:3 *102:A1 1
4 *2583:7 *2583:6 3.751786
5 *2583:8 *2583:7 0.5
6 *2583:8 *2583:5 1.061607
7 *2583:6 *103:A1 1
8 *2583:10 *2583:9 0.5
9 *2583:9 *2583:8 4.861607
10 *2583:12 *2583:11 1
11 *2583:11 *2583:10 0.2325

*END

*D_NET *2586 1.282889 //LENGTH 12.149 LUMPCC 0 DR

*CONN
*I *95:Y O *L 0 *C 25.659 46.258
*I *79:A3 I *L 0.455637 *C 25.368 34.488
*N *2586:2 *C 25.369 34.488
*N *2586:3 *C 25.520 34.488
*N *2586:4 *C 25.520 46.331

*CAP
0 *95:Y 0.001
1 *79:A3 0.001
2 *2586:2 0.004491915
3 *2586:3 0.6433471
4 *2586:4 0.6330504

*RES
0 *95:Y *2586:4 1
1 *2586:2 *79:A3 1
2 *2586:4 *2586:3 21.14732
3 *2586:3 *2586:2 0.2696429

*END

*D_NET *2588 11.18936 //LENGTH 163.421 LUMPCC 0 DR

*CONN
*I *163:Y O *L 0 *C 18.224 7.280
*I *374:CLK I *L 0.694632 *C 17.616 5.152
*I *408:CLK I *L 0.694632 *C 17.768 8.496
*I *225:CLK I *L 0.694632 *C 12.904 8.496
*I *136:CLK I *L 0.695415 *C 10.928 11.536
*I *397:CLK I *L 0.694632 *C 12.752 14.880
*I *234:CLK I *L 0.694632 *C 11.080 14.880
*I *400:CLK I *L 0.694632 *C 13.056 15.184
*I *231:CLK I *L 0.694632 *C 11.232 18.224
*I *404:CLK I *L 0.694632 *C 12.752 18.528
*I *228:CLK I *L 0.694632 *C 11.536 18.528
*I *396:CLK I *L 0.694632 *C 13.056 21.568
*I *232:CLK I *L 0.694632 *C 13.056 5.152
*I *405:CLK I *L 0.694632 *C 18.528 11.536
*I *401:CLK I *L 0.694632 *C 15.488 11.536
*I *409:CLK I *L 0.694632 *C 18.528 14.880
*I *403:CLK I *L 0.694632 *C 18.832 18.224
*I *406:CLK I *L 0.694632 *C 18.984 18.528
*I *394:CLK I *L 0.694632 *C 17.160 25.216
*I *369:CLK I *L 0.694632 *C 17.464 28.256
*I *368:CLK I *L 0.694632 *C 14.728 31.600
*I *224:CLK I *L 0.694632 *C 10.168 35.248
*I *137:CLK I *L 0.695415 *C 10.168 38.288
*I *230:CLK I *L 0.694632 *C 9.560 38.592
*I *361:CLK I *L 0.694632 *C 14.576 38.288
*I *222:CLK I *L 0.694632 *C 10.168 31.600
*I *235:CLK I *L 0.694632 *C 5.608 31.600
*I *229:CLK I *L 0.694632 *C 5.760 34.944
*I *395:CLK I *L 0.694632 *C 13.512 21.872
*I *227:CLK I *L 0.694632 *C 8.800 21.872
*I *233:CLK I *L 0.694632 *C 9.560 28.256
*I *223:CLK I *L 0.694632 *C 9.560 28.560
*I *226:CLK I *L 0.694632 *C 12.296 24.912
*I *375:CLK I *L 0.694632 *C 22.176 5.152
*I *364:CLK I *L 0.694632 *C 26.736 5.152
*I *398:CLK I *L 0.694632 *C 24.563 11.840
*I *365:CLK I *L 0.694632 *C 26.584 8.496
*I *402:CLK I *L 0.694632 *C 26.432 11.536
*I *399:CLK I *L 0.694632 *C 25.368 18.224
*I *407:CLK I *L 0.694632 *C 25.520 21.568
*I *367:CLK I *L 0.694632 *C 25.520 15.184
*N *2588:41 *C 25.520 15.184
*N *2588:42 *C 25.520 15.324
*N *2588:43 *C 25.533 15.336
*N *2588:44 *C 25.520 21.556
*N *2588:45 *C 25.520 21.416
*N *2588:46 *C 25.508 21.416
*N *2588:47 *C 25.368 21.416
*N *2588:48 *C 25.368 21.402
*N *2588:49 *C 25.186 17.768
*N *2588:50 *C 25.368 18.210
*N *2588:51 *C 25.368 17.782
*N *2588:52 *C 25.356 17.768
*N *2588:53 *C 25.368 17.768
*N *2588:54 *C 25.368 15.336
*N *2588:55 *C 25.671 15.336
*N *2588:56 *C 25.686 15.336
*N *2588:57 *C 26.267 15.336
*N *2588:58 *C 26.280 15.323
*N *2588:59 *C 26.432 11.524
*N *2588:60 *C 26.432 11.384
*N *2588:61 *C 26.420 11.384
*N *2588:62 *C 26.280 11.384
*N *2588:63 *C 26.280 11.384
*N *2588:64 *C 26.584 11.384
*N *2588:65 *C 26.402 8.648
*N *2588:66 *C 26.584 8.496
*N *2588:67 *C 26.584 8.636
*N *2588:68 *C 26.572 8.648
*N *2588:69 *C 26.584 8.662
*N *2588:70 *C 26.584 9.864
*N *2588:71 *C 26.571 9.864
*N *2588:72 *C 24.608 11.840
*N *2588:73 *C 24.608 11.828
*N *2588:74 *C 24.608 11.688
*N *2588:75 *C 24.596 11.688
*N *2588:76 *C 24.456 11.688
*N *2588:77 *C 24.456 11.675
*N *2588:78 *C 24.456 9.878
*N *2588:79 *C 24.456 9.864
*N *2588:80 *C 22.341 9.864
*N *2588:81 *C 22.328 9.851
*N *2588:82 *C 26.736 5.139
*N *2588:83 *C 26.736 5.000
*N *2588:84 *C 26.723 5.000
*N *2588:85 *C 22.176 5.139
*N *2588:86 *C 22.176 5.000
*N *2588:87 *C 22.189 5.000
*N *2588:88 *C 22.341 5.000
*N *2588:89 *C 22.328 5.014
*N *2588:90 *C 22.328 7.736
*N *2588:91 *C 22.315 7.736
*N *2588:92 *C 12.114 24.760
*N *2588:93 *C 12.296 24.899
*N *2588:94 *C 12.296 24.760
*N *2588:95 *C 12.284 24.760
*N *2588:96 *C 12.296 24.747
*N *2588:97 *C 9.560 28.548
*N *2588:98 *C 9.560 28.269
*N *2588:99 *C 9.560 28.408
*N *2588:100 *C 9.560 28.407
*N *2588:101 *C 9.560 28.257
*N *2588:102 *C 9.560 28.242
*N *2588:103 *C 8.800 21.872
*N *2588:104 *C 8.800 22.012
*N *2588:105 *C 8.814 22.024
*N *2588:106 *C 9.546 22.024
*N *2588:107 *C 9.560 22.038
*N *2588:108 *C 9.560 23.240
*N *2588:109 *C 9.574 23.240
*N *2588:110 *C 12.283 23.240
*N *2588:111 *C 12.296 23.240
*N *2588:112 *C 12.296 21.733
*N *2588:113 *C 12.309 21.720
*N *2588:114 *C 13.512 21.860
*N *2588:115 *C 13.512 21.720
*N *2588:116 *C 13.512 21.720
*N *2588:117 *C 5.760 34.931
*N *2588:118 *C 5.760 34.792
*N *2588:119 *C 5.748 34.792
*N *2588:120 *C 5.608 34.792
*N *2588:121 *C 5.608 34.779
*N *2588:122 *C 5.608 31.462
*N *2588:123 *C 5.608 31.588
*N *2588:124 *C 5.608 31.448
*N *2588:125 *C 5.622 31.448
*N *2588:126 *C 10.168 31.588
*N *2588:127 *C 10.168 31.448
*N *2588:128 *C 10.168 31.448
*N *2588:129 *C 14.576 38.276
*N *2588:130 *C 14.576 38.136
*N *2588:131 *C 14.562 38.136
*N *2588:132 *C 13.526 38.136
*N *2588:133 *C 13.512 38.123
*N *2588:134 *C 9.560 38.580
*N *2588:135 *C 9.560 38.440
*N *2588:136 *C 9.574 38.440
*N *2588:137 *C 10.168 38.440
*N *2588:138 *C 10.168 38.106
*N *2588:139 *C 10.168 38.276
*N *2588:140 *C 10.168 38.289
*N *2588:141 *C 10.168 38.275
*N *2588:142 *C 9.986 35.400
*N *2588:143 *C 10.168 35.248
*N *2588:144 *C 10.168 35.388
*N *2588:145 *C 10.155 35.400
*N *2588:146 *C 10.168 35.413
*N *2588:147 *C 10.168 36.616
*N *2588:148 *C 10.181 36.616
*N *2588:149 *C 13.498 36.616
*N *2588:150 *C 13.512 36.616
*N *2588:151 *C 13.512 31.462
*N *2588:152 *C 13.512 31.448
*N *2588:153 *C 14.728 31.588
*N *2588:154 *C 14.728 31.448
*N *2588:155 *C 14.728 31.448
*N *2588:156 *C 17.146 31.448
*N *2588:157 *C 17.160 31.434
*N *2588:158 *C 17.464 28.244
*N *2588:159 *C 17.464 28.104
*N *2588:160 *C 17.451 28.104
*N *2588:161 *C 17.174 28.104
*N *2588:162 *C 17.160 28.104
*N *2588:163 *C 16.978 25.216
*N *2588:164 *C 17.160 25.034
*N *2588:165 *C 17.160 25.204
*N *2588:166 *C 17.148 25.216
*N *2588:167 *C 17.160 25.216
*N *2588:168 *C 17.160 21.733
*N *2588:169 *C 17.160 21.720
*N *2588:170 *C 18.971 21.720
*N *2588:171 *C 18.984 21.707
*N *2588:172 *C 18.802 18.528
*N *2588:173 *C 18.984 18.346
*N *2588:174 *C 18.984 18.515
*N *2588:175 *C 18.972 18.528
*N *2588:176 *C 18.984 18.528
*N *2588:177 *C 18.832 18.210
*N *2588:178 *C 18.832 17.782
*N *2588:179 *C 18.832 17.768
*N *2588:180 *C 18.972 17.768
*N *2588:181 *C 18.984 17.768
*N *2588:182 *C 18.528 14.868
*N *2588:183 *C 18.528 14.728
*N *2588:184 *C 18.541 14.728
*N *2588:185 *C 18.971 14.728
*N *2588:186 *C 18.984 14.728
*N *2588:187 *C 15.488 11.524
*N *2588:188 *C 15.488 11.384
*N *2588:189 *C 15.502 11.384
*N *2588:190 *C 18.528 11.524
*N *2588:191 *C 18.528 11.384
*N *2588:192 *C 18.528 11.384
*N *2588:193 *C 18.971 11.384
*N *2588:194 *C 18.984 11.384
*N *2588:195 *C 18.984 7.750
*N *2588:196 *C 18.984 7.736
*N *2588:197 *C 18.984 7.432
*N *2588:198 *C 13.056 5.152
*N *2588:199 *C 13.056 5.292
*N *2588:200 *C 13.056 5.304
*N *2588:201 *C 13.196 5.304
*N *2588:202 *C 13.208 5.317
*N *2588:203 *C 13.056 21.556
*N *2588:204 *C 13.056 21.416
*N *2588:205 *C 13.043 21.416
*N *2588:206 *C 12.904 21.416
*N *2588:207 *C 12.904 21.402
*N *2588:208 *C 11.536 18.515
*N *2588:209 *C 11.536 18.376
*N *2588:210 *C 11.550 18.376
*N *2588:211 *C 12.752 18.515
*N *2588:212 *C 12.752 18.376
*N *2588:213 *C 12.764 18.376
*N *2588:214 *C 12.892 18.376
*N *2588:215 *C 12.904 18.376
*N *2588:216 *C 11.232 18.210
*N *2588:217 *C 11.232 17.782
*N *2588:218 *C 11.245 17.768
*N *2588:219 *C 12.891 17.768
*N *2588:220 *C 12.904 17.768
*N *2588:221 *C 13.056 15.184
*N *2588:222 *C 13.056 15.324
*N *2588:223 *C 13.043 15.336
*N *2588:224 *C 12.904 15.336
*N *2588:225 *C 12.904 15.336
*N *2588:226 *C 11.080 14.868
*N *2588:227 *C 11.080 14.728
*N *2588:228 *C 11.094 14.728
*N *2588:229 *C 12.752 14.868
*N *2588:230 *C 12.752 14.728
*N *2588:231 *C 12.764 14.728
*N *2588:232 *C 12.892 14.728
*N *2588:233 *C 12.904 14.728
*N *2588:234 *C 10.928 11.524
*N *2588:235 *C 10.928 11.384
*N *2588:236 *C 10.942 11.384
*N *2588:237 *C 12.891 11.384
*N *2588:238 *C 12.904 11.384
*N *2588:239 *C 12.722 8.496
*N *2588:240 *C 12.904 8.314
*N *2588:241 *C 12.904 8.484
*N *2588:242 *C 12.892 8.496
*N *2588:243 *C 12.904 8.496
*N *2588:244 *C 12.904 7.432
*N *2588:245 *C 13.208 7.419
*N *2588:246 *C 13.222 7.432
*N *2588:247 *C 17.586 8.344
*N *2588:248 *C 17.768 8.484
*N *2588:249 *C 17.768 8.344
*N *2588:250 *C 17.756 8.344
*N *2588:251 *C 17.768 8.331
*N *2588:252 *C 17.768 7.432
*N *2588:253 *C 17.616 5.152
*N *2588:254 *C 17.616 5.292
*N *2588:255 *C 17.604 5.304
*N *2588:256 *C 17.464 5.304
*N *2588:257 *C 17.464 5.317
*N *2588:258 *C 17.464 7.432
*N *2588:259 *C 17.464 7.432
*N *2588:260 *C 18.224 7.432
*N *2588:261 *C 18.224 7.420
*N *2588:262 *C 18.224 7.280

*CAP
0 *163:Y 0.001
1 *374:CLK 0.001
2 *408:CLK 0.001
3 *225:CLK 0.001
4 *136:CLK 0.001
5 *397:CLK 0.001
6 *234:CLK 0.001
7 *400:CLK 0.001
8 *231:CLK 0.001
9 *404:CLK 0.001
10 *228:CLK 0.001
11 *396:CLK 0.001
12 *232:CLK 0.001
13 *405:CLK 0.001
14 *401:CLK 0.001
15 *409:CLK 0.001
16 *403:CLK 0.001
17 *406:CLK 0.001
18 *394:CLK 0.001
19 *369:CLK 0.001
20 *368:CLK 0.001
21 *224:CLK 0.001
22 *137:CLK 0.001
23 *230:CLK 0.001
24 *361:CLK 0.001
25 *222:CLK 0.001
26 *235:CLK 0.001
27 *229:CLK 0.001
28 *395:CLK 0.001
29 *227:CLK 0.001
30 *233:CLK 0.001
31 *223:CLK 0.001
32 *226:CLK 0.001
33 *375:CLK 0.001
34 *364:CLK 0.001
35 *398:CLK 0.01025773
36 *365:CLK 0.001
37 *402:CLK 0.001
38 *399:CLK 0.001
39 *407:CLK 0.001
40 *367:CLK 0.001
41 *2588:41 0.007164155
42 *2588:42 0.008307687
43 *2588:43 0.00850047
44 *2588:44 0.007962169
45 *2588:45 0.009105701
46 *2588:46 0.009129431
47 *2588:47 0.009129534
48 *2588:48 0.1254473
49 *2588:49 0.01423984
50 *2588:50 0.01816139
51 *2588:51 0.01930493
52 *2588:52 0.01068187
53 *2588:53 0.2042026
54 *2588:54 0.089885
55 *2588:55 0.009350748
56 *2588:56 0.03672949
57 *2588:57 0.02644999
58 *2588:58 0.1377157
59 *2588:59 0.01205896
60 *2588:60 0.01320249
61 *2588:61 0.0102012
62 *2588:62 0.0102013
63 *2588:63 0.1501882
64 *2588:64 0.06884579
65 *2588:65 0.01114598
66 *2588:66 0.008094111
67 *2588:67 0.009237643
68 *2588:68 0.007588014
69 *2588:69 0.0447075
70 *2588:70 0.1010808
71 *2588:71 0.09480553
72 *2588:72 0.008663603
73 *2588:73 0.01279507
74 *2588:74 0.01261016
75 *2588:75 0.009454859
76 *2588:76 0.009454962
77 *2588:77 0.07197774
78 *2588:78 0.07197774
79 *2588:79 0.1794474
80 *2588:80 0.08286297
81 *2588:81 0.06619783
82 *2588:82 0.009327934
83 *2588:83 0.01047147
84 *2588:84 0.1517888
85 *2588:85 0.01187295
86 *2588:86 0.01301648
87 *2588:87 0.006800864
88 *2588:88 0.1603688
89 *2588:89 0.08660884
90 *2588:90 0.1545856
91 *2588:91 0.120946
92 *2588:92 0.01078328
93 *2588:93 0.01204344
94 *2588:94 0.01318697
95 *2588:95 0.007225315
96 *2588:96 0.04728856
97 *2588:97 0.00504609
98 *2588:98 0.00504609
99 *2588:99 0.01415828
100 *2588:100 0.004715532
101 *2588:101 0.004715633
102 *2588:102 0.1551799
103 *2588:103 0.01038059
104 *2588:104 0.01152412
105 *2588:105 0.03017045
106 *2588:106 0.03017054
107 *2588:107 0.03849434
108 *2588:108 0.1954532
109 *2588:109 0.09986863
110 *2588:110 0.09986863
111 *2588:111 0.09814067
112 *2588:112 0.04907318
113 *2588:113 0.04193938
114 *2588:114 0.007382896
115 *2588:115 0.008526428
116 *2588:116 0.1659207
117 *2588:117 0.009940046
118 *2588:118 0.01108358
119 *2588:119 0.007201874
120 *2588:120 0.007201975
121 *2588:121 0.095122
122 *2588:122 0.095122
123 *2588:123 0.008871472
124 *2588:124 0.010015
125 *2588:125 0.1898195
126 *2588:126 0.01038985
127 *2588:127 0.01153338
128 *2588:128 0.3057453
129 *2588:129 0.008145708
130 *2588:130 0.009289239
131 *2588:131 0.03939768
132 *2588:132 0.03939778
133 *2588:133 0.04783103
134 *2588:134 0.007564466
135 *2588:135 0.008707998
136 *2588:136 0.02841548
137 *2588:137 0.03682386
138 *2588:138 0.01678616
139 *2588:139 0.01208456
140 *2588:140 0.003071387
141 *2588:141 0.05248019
142 *2588:142 0.01065408
143 *2588:143 0.0122395
144 *2588:144 0.01338303
145 *2588:145 0.007096116
146 *2588:146 0.03858397
147 *2588:147 0.09284309
148 *2588:148 0.1336094
149 *2588:149 0.1336094
150 *2588:150 0.2114369
151 *2588:151 0.1618269
152 *2588:152 0.1529767
153 *2588:153 0.009520594
154 *2588:154 0.01066413
155 *2588:155 0.1416144
156 *2588:156 0.1010057
157 *2588:157 0.111927
158 *2588:158 0.007526434
159 *2588:159 0.008669965
160 *2588:160 0.01440085
161 *2588:161 0.01440095
162 *2588:162 0.209782
163 *2588:163 0.01166709
164 *2588:164 0.01300573
165 *2588:165 0.008304128
166 *2588:166 0.008109123
167 *2588:167 0.2184042
168 *2588:168 0.1205492
169 *2588:169 0.1921883
170 *2588:170 0.06820693
171 *2588:171 0.1002095
172 *2588:172 0.01175424
173 *2588:173 0.01383668
174 *2588:174 0.009135085
175 *2588:175 0.008196278
176 *2588:176 0.1247527
177 *2588:177 0.03003605
178 *2588:178 0.03117958
179 *2588:179 0.0108788
180 *2588:180 0.0108789
181 *2588:181 0.115425
182 *2588:182 0.01269476
183 *2588:183 0.01383829
184 *2588:184 0.02411731
185 *2588:185 0.02411741
186 *2588:186 0.199751
187 *2588:187 0.007349292
188 *2588:188 0.008492824
189 *2588:189 0.1240466
190 *2588:190 0.01265751
191 *2588:191 0.01380104
192 *2588:192 0.1449485
193 *2588:193 0.01912298
194 *2588:194 0.2219827
195 *2588:195 0.1131135
196 *2588:196 0.1329771
197 *2588:197 0.03904778
198 *2588:198 0.007177873
199 *2588:199 0.008321404
200 *2588:200 0.008146697
201 *2588:201 0.008146799
202 *2588:202 0.06563178
203 *2588:203 0.008281197
204 *2588:204 0.009424729
205 *2588:205 0.00969469
206 *2588:206 0.009694791
207 *2588:207 0.08954988
208 *2588:208 0.007941638
209 *2588:209 0.009085169
210 *2588:210 0.04885995
211 *2588:211 0.007267083
212 *2588:212 0.008410614
213 *2588:213 0.05914808
214 *2588:214 0.008509204
215 *2588:215 0.1076772
216 *2588:216 0.01808772
217 *2588:217 0.01923125
218 *2588:218 0.07798621
219 *2588:219 0.07798631
220 *2588:220 0.0895964
221 *2588:221 0.007264927
222 *2588:222 0.008408459
223 *2588:223 0.009009303
224 *2588:224 0.009009403
225 *2588:225 0.09016767
226 *2588:226 0.007091264
227 *2588:227 0.008234795
228 *2588:228 0.07323557
229 *2588:229 0.007410414
230 *2588:230 0.008553945
231 *2588:231 0.08536786
232 *2588:232 0.01035335
233 *2588:233 0.1165883
234 *2588:234 0.006716994
235 *2588:235 0.007860526
236 *2588:236 0.07688703
237 *2588:237 0.07688712
238 *2588:238 0.1820998
239 *2588:239 0.01554012
240 *2588:240 0.01193376
241 *2588:241 0.007232158
242 *2588:242 0.01198215
243 *2588:243 0.1182202
244 *2588:244 0.04644766
245 *2588:245 0.07629035
246 *2588:246 0.1410609
247 *2588:247 0.01045748
248 *2588:248 0.01011054
249 *2588:249 0.01125407
250 *2588:250 0.006899513
251 *2588:251 0.03582511
252 *2588:252 0.04938102
253 *2588:253 0.008213221
254 *2588:254 0.009356752
255 *2588:255 0.00758351
256 *2588:256 0.007583611
257 *2588:257 0.07368347
258 *2588:258 0.08546045
259 *2588:259 0.1671259
260 *2588:260 0.0513026
261 *2588:261 0.01167631
262 *2588:262 0.01053278

*RES
0 *163:Y *2588:262 1
1 *2588:68 *2588:67 0.5
2 *2588:68 *2588:65 0.2825
3 *2588:69 *2588:68 0.5
4 *2588:67 *2588:66 0.2325
5 *2588:66 *365:CLK 1
6 *2588:62 *2588:61 0.2325
7 *2588:63 *2588:62 0.5
8 *2588:63 *2588:58 7.033036
9 *2588:60 *2588:59 0.2325
10 *2588:61 *2588:60 0.5
11 *2588:59 *402:CLK 1
12 *2588:57 *2588:56 1.0375
13 *2588:58 *2588:57 0.5
14 *2588:42 *2588:41 0.2325
15 *2588:43 *2588:42 0.5
16 *2588:41 *367:CLK 1
17 *2588:56 *2588:55 0.5
18 *2588:56 *2588:43 0.255
19 *2588:55 *2588:54 0.5410715
20 *2588:47 *2588:46 0.2325
21 *2588:48 *2588:47 0.5
22 *2588:45 *2588:44 0.2325
23 *2588:46 *2588:45 0.5
24 *2588:44 *407:CLK 1
25 *2588:52 *2588:51 0.5
26 *2588:52 *2588:49 0.2825
27 *2588:53 *2588:52 0.5
28 *2588:53 *2588:48 6.490179
29 *2588:51 *2588:50 0.7660714
30 *2588:50 *399:CLK 1
31 *2588:71 *2588:70 0.5
32 *2588:70 *2588:69 2.147322
33 *2588:70 *2588:64 2.714286
34 *2588:79 *2588:78 0.5
35 *2588:79 *2588:71 3.775893
36 *2588:78 *2588:77 3.208929
37 *2588:76 *2588:75 0.2325
38 *2588:77 *2588:76 0.5
39 *2588:74 *2588:73 0.2325
40 *2588:75 *2588:74 0.5
41 *2588:72 *398:CLK 0.09166668
42 *2588:73 *2588:72 1
43 *2588:83 *2588:82 0.2325
44 *2588:84 *2588:83 0.5
45 *2588:82 *364:CLK 1
46 *2588:80 *2588:79 3.775893
47 *2588:81 *2588:80 0.5
48 *2588:88 *2588:87 0.255
49 *2588:88 *2588:84 7.823215
50 *2588:89 *2588:88 0.5
51 *2588:86 *2588:85 0.2325
52 *2588:87 *2588:86 0.5
53 *2588:85 *375:CLK 1
54 *2588:91 *2588:90 0.5
55 *2588:90 *2588:89 4.861607
56 *2588:90 *2588:81 3.775893
57 *2588:196 *2588:195 0.5
58 *2588:196 *2588:91 5.947322
59 *2588:195 *2588:194 6.49018
60 *2588:175 *2588:174 0.5
61 *2588:175 *2588:172 0.2825
62 *2588:176 *2588:175 0.5
63 *2588:176 *2588:171 5.675893
64 *2588:174 *406:CLK 1
65 *2588:174 *2588:173 0.2825
66 *2588:180 *2588:179 0.2325
67 *2588:181 *2588:180 0.5
68 *2588:181 *2588:176 1.357143
69 *2588:178 *2588:177 0.7660714
70 *2588:179 *2588:178 0.5
71 *2588:177 *403:CLK 1
72 *2588:193 *2588:192 0.7901786
73 *2588:194 *2588:193 0.5
74 *2588:194 *2588:186 5.971429
75 *2588:185 *2588:184 0.7660714
76 *2588:186 *2588:185 0.5
77 *2588:186 *2588:181 5.428572
78 *2588:183 *2588:182 0.2325
79 *2588:184 *2588:183 0.5
80 *2588:182 *409:CLK 1
81 *2588:191 *2588:190 0.2325
82 *2588:192 *2588:191 0.5
83 *2588:192 *2588:189 5.404464
84 *2588:190 *405:CLK 1
85 *2588:261 *2588:260 0.5
86 *2588:260 *2588:259 1.357143
87 *2588:260 *2588:197 1.357143
88 *2588:262 *2588:261 0.2325
89 *2588:250 *2588:249 0.5
90 *2588:250 *2588:247 0.2825
91 *2588:251 *2588:250 0.5
92 *2588:249 *2588:248 0.2325
93 *2588:248 *408:CLK 1
94 *2588:259 *2588:258 0.5
95 *2588:259 *2588:246 7.575893
96 *2588:258 *2588:257 3.775893
97 *2588:258 *2588:252 0.5428572
98 *2588:256 *2588:255 0.2325
99 *2588:257 *2588:256 0.5
100 *2588:254 *2588:253 0.2325
101 *2588:255 *2588:254 0.5
102 *2588:253 *374:CLK 1
103 *2588:170 *2588:169 3.233036
104 *2588:171 *2588:170 0.5
105 *2588:161 *2588:160 0.4946429
106 *2588:162 *2588:161 0.5
107 *2588:162 *2588:157 5.947322
108 *2588:159 *2588:158 0.2325
109 *2588:160 *2588:159 0.5
110 *2588:158 *369:CLK 1
111 *2588:169 *2588:168 0.5
112 *2588:169 *2588:116 6.514286
113 *2588:168 *2588:167 6.21875
114 *2588:166 *2588:165 0.5
115 *2588:166 *2588:163 0.2825
116 *2588:167 *2588:166 0.5
117 *2588:167 *2588:162 5.157143
118 *2588:165 *394:CLK 1
119 *2588:165 *2588:164 0.2825
120 *2588:188 *2588:187 0.2325
121 *2588:189 *2588:188 0.5
122 *2588:187 *401:CLK 1
123 *2588:156 *2588:155 4.31875
124 *2588:157 *2588:156 0.5
125 *2588:154 *2588:153 0.2325
126 *2588:155 *2588:154 0.5
127 *2588:155 *2588:152 2.171429
128 *2588:153 *368:CLK 1
129 *2588:132 *2588:131 1.851786
130 *2588:133 *2588:132 0.5
131 *2588:130 *2588:129 0.2325
132 *2588:131 *2588:130 0.5
133 *2588:129 *361:CLK 1
134 *2588:152 *2588:151 0.5
135 *2588:152 *2588:128 5.971429
136 *2588:151 *2588:150 9.204465
137 *2588:115 *2588:114 0.2325
138 *2588:116 *2588:115 0.5
139 *2588:116 *2588:113 2.147322
140 *2588:114 *395:CLK 1
141 *2588:246 *2588:245 0.5
142 *2588:245 *2588:244 0.5428572
143 *2588:245 *2588:202 3.751786
144 *2588:201 *2588:200 0.2325
145 *2588:202 *2588:201 0.5
146 *2588:199 *2588:198 0.2325
147 *2588:200 *2588:199 0.5
148 *2588:198 *232:CLK 1
149 *2588:206 *2588:205 0.2325
150 *2588:207 *2588:206 0.5
151 *2588:204 *2588:203 0.2325
152 *2588:205 *2588:204 0.5
153 *2588:203 *396:CLK 1
154 *2588:224 *2588:223 0.2325
155 *2588:225 *2588:224 0.5
156 *2588:225 *2588:220 4.342857
157 *2588:222 *2588:221 0.2325
158 *2588:223 *2588:222 0.5
159 *2588:221 *400:CLK 1
160 *2588:214 *2588:213 0.2116667
161 *2588:215 *2588:214 0.5
162 *2588:215 *2588:207 5.404464
163 *2588:232 *2588:231 0.2116667
164 *2588:233 *2588:232 0.5
165 *2588:233 *2588:225 1.085714
166 *2588:212 *2588:211 0.2325
167 *2588:213 *2588:212 0.5
168 *2588:213 *2588:210 2.169643
169 *2588:211 *404:CLK 1
170 *2588:230 *2588:229 0.2325
171 *2588:231 *2588:230 0.5
172 *2588:231 *2588:228 2.983929
173 *2588:229 *397:CLK 1
174 *2588:242 *2588:241 0.5
175 *2588:242 *2588:239 0.2825
176 *2588:243 *2588:242 0.5
177 *2588:243 *2588:238 5.157143
178 *2588:241 *225:CLK 1
179 *2588:241 *2588:240 0.2825
180 *2588:113 *2588:112 0.5
181 *2588:112 *2588:111 2.690179
182 *2588:95 *2588:94 0.5
183 *2588:95 *2588:92 0.2825
184 *2588:96 *2588:95 0.5
185 *2588:94 *2588:93 0.2325
186 *2588:93 *226:CLK 1
187 *2588:209 *2588:208 0.2325
188 *2588:210 *2588:209 0.5
189 *2588:208 *228:CLK 1
190 *2588:219 *2588:218 2.9375
191 *2588:220 *2588:219 0.5
192 *2588:220 *2588:215 1.085714
193 *2588:217 *2588:216 0.7660714
194 *2588:218 *2588:217 0.5
195 *2588:216 *231:CLK 1
196 *2588:227 *2588:226 0.2325
197 *2588:228 *2588:227 0.5
198 *2588:226 *234:CLK 1
199 *2588:237 *2588:236 3.480357
200 *2588:238 *2588:237 0.5
201 *2588:238 *2588:233 5.971429
202 *2588:235 *2588:234 0.2325
203 *2588:236 *2588:235 0.5
204 *2588:234 *136:CLK 1
205 *2588:139 *137:CLK 1
206 *2588:139 *2588:138 0.2825
207 *2588:140 *2588:139 0.5
208 *2588:140 *2588:137 0.2696429
209 *2588:141 *2588:140 0.5
210 *2588:149 *2588:148 5.923214
211 *2588:150 *2588:149 0.5
212 *2588:150 *2588:133 2.690179
213 *2588:148 *2588:147 0.5
214 *2588:147 *2588:146 2.147322
215 *2588:147 *2588:141 2.961607
216 *2588:127 *2588:126 0.2325
217 *2588:128 *2588:127 0.5
218 *2588:128 *2588:125 8.118751
219 *2588:126 *222:CLK 1
220 *2588:145 *2588:144 0.5
221 *2588:145 *2588:142 0.2825
222 *2588:146 *2588:145 0.5
223 *2588:144 *2588:143 0.2325
224 *2588:143 *224:CLK 1
225 *2588:135 *2588:134 0.2325
226 *2588:136 *2588:135 0.5
227 *2588:134 *230:CLK 1
228 *2588:97 *223:CLK 1
229 *2588:98 *233:CLK 1
230 *2588:99 *2588:98 0.2325
231 *2588:99 *2588:97 0.2325
232 *2588:100 *2588:99 0.5
233 *2588:101 *2588:100 0.2678572
234 *2588:102 *2588:101 0.5
235 *2588:110 *2588:109 4.837501
236 *2588:111 *2588:110 0.5
237 *2588:111 *2588:96 2.690179
238 *2588:109 *2588:108 0.5
239 *2588:108 *2588:107 2.147322
240 *2588:108 *2588:102 8.933037
241 *2588:106 *2588:105 1.308929
242 *2588:107 *2588:106 0.5
243 *2588:104 *2588:103 0.2325
244 *2588:105 *2588:104 0.5
245 *2588:103 *227:CLK 1
246 *2588:124 *2588:123 0.2325
247 *2588:125 *2588:124 0.5
248 *2588:125 *2588:122 0.5
249 *2588:123 *235:CLK 1
250 *2588:122 *2588:121 5.923215
251 *2588:120 *2588:119 0.2325
252 *2588:121 *2588:120 0.5
253 *2588:118 *2588:117 0.2325
254 *2588:119 *2588:118 0.5
255 *2588:117 *229:CLK 1
256 *2588:137 *2588:136 1.061607
257 *2588:197 *2588:196 0.5428572
258 *2588:244 *2588:243 1.9
259 *2588:252 *2588:251 1.604464
260 *2588:54 *2588:53 4.342857
261 *2588:64 *2588:63 0.5428572

*END

*D_NET *2618 2.251617 //LENGTH 25.362 LUMPCC 0 DR

*CONN
*I *407:Q O *L 0 *C 29.168 21.112
*I *353:A2 I *L 0.501039 *C 19.288 27.800
*I *49:A2 I *L 0.52073 *C 19.288 29.472
*I *383:A2 I *L 0.501039 *C 19.949 24.456
*I *382:A4 I *L 0.569168 *C 23.544 22.784
*I *280:A2 I *L 0.466516 *C 29.447 27.521
*N *2618:6 *C 29.031 27.496
*N *2618:7 *C 29.016 27.483
*N *2618:8 *C 23.543 22.784
*N *2618:9 *C 19.288 29.471
*N *2618:10 *C 19.288 27.800
*N *2618:11 *C 19.288 27.206
*N *2618:12 *C 19.302 27.192
*N *2618:13 *C 19.883 27.192
*N *2618:14 *C 19.896 27.178
*N *2618:15 *C 19.896 24.470
*N *2618:16 *C 19.896 24.456
*N *2618:17 *C 19.949 24.456
*N *2618:18 *C 19.972 24.456
*N *2618:19 *C 20.048 24.456
*N *2618:20 *C 20.048 24.470
*N *2618:21 *C 20.048 24.747
*N *2618:22 *C 20.062 24.760
*N *2618:23 *C 23.379 24.760
*N *2618:24 *C 23.392 24.747
*N *2618:25 *C 23.392 22.784
*N *2618:26 *C 23.392 22.646
*N *2618:27 *C 23.405 22.632
*N *2618:28 *C 29.003 22.632
*N *2618:29 *C 29.016 22.632
*N *2618:30 *C 29.168 22.632
*N *2618:31 *C 29.168 21.126

*CAP
0 *407:Q 0.001
1 *353:A2 0.001
2 *49:A2 0.001
3 *383:A2 0.001
4 *382:A4 0.001
5 *280:A2 0.02620197
6 *2618:6 0.02460784
7 *2618:7 0.1946581
8 *2618:8 0.004723272
9 *2618:9 0.1115327
10 *2618:10 0.155352
11 *2618:11 0.04204027
12 *2618:12 0.03392261
13 *2618:13 0.03392261
14 *2618:14 0.1241476
15 *2618:15 0.1243325
16 *2618:16 0.003358975
17 *2618:17 0.004953101
18 *2618:18 0.001
19 *2618:19 0.001
20 *2618:20 0.02059914
21 *2618:21 0.02174267
22 *2618:22 0.1479293
23 *2618:23 0.1479293
24 *2618:24 0.097942
25 *2618:25 0.1171656
26 *2618:26 0.008019683
27 *2618:27 0.2269109
28 *2618:28 0.2269109
29 *2618:29 0.2018356
30 *2618:30 0.07708157
31 *2618:31 0.06679659

*RES
0 *407:Q *2618:31 1
1 *2618:31 *2618:30 2.690179
2 *2618:6 *280:A2 0.8320001
3 *2618:7 *2618:6 1
4 *2618:8 *382:A4 1
5 *2618:29 *2618:28 0.5
6 *2618:29 *2618:7 8.661608
7 *2618:28 *2618:27 9.994644
8 *2618:26 *2618:25 0.2473214
9 *2618:27 *2618:26 0.5
10 *2618:24 *2618:23 0.5
11 *2618:23 *2618:22 5.923214
12 *2618:21 *2618:20 0.4946429
13 *2618:22 *2618:21 0.5
14 *2618:20 *2618:19 1
15 *2618:9 *49:A2 1
16 *2618:10 *353:A2 1
17 *2618:10 *2618:9 2.983929
18 *2618:11 *2618:10 1.061607
19 *2618:12 *2618:11 0.5
20 *2618:14 *2618:13 0.5
21 *2618:13 *2618:12 1.0375
22 *2618:16 *2618:15 1
23 *2618:15 *2618:14 4.837501
24 *2618:25 *2618:24 3.504464
25 *2618:25 *2618:8 0.2696429
26 *2618:30 *2618:29 0.2714286
27 *2618:19 *2618:18 0.06909091
28 *2618:18 *2618:17 0.02118182
29 *2618:17 *2618:16 0.08783333
30 *2618:17 *383:A2 0.001

*END

*D_NET *2622 2.634905 //LENGTH 28.697 LUMPCC 0 DR

*CONN
*I *399:Q O *L 0 *C 29.016 17.768
*I *385:A4 I *L 0.569168 *C 23.544 17.312
*I *295:A2 I *L 0.52073 *C 41.024 17.312
*I *55:A2 I *L 0.52073 *C 30.992 16.096
*I *357:A2 I *L 0.501039 *C 29.601 11.080
*N *2622:5 *C 29.764 11.080
*N *2622:6 *C 29.776 11.094
*N *2622:7 *C 30.992 16.084
*N *2622:8 *C 41.024 17.299
*N *2622:9 *C 41.024 15.654
*N *2622:10 *C 41.011 15.640
*N *2622:11 *C 35.704 15.640
*N *2622:12 *C 35.704 15.944
*N *2622:13 *C 31.006 15.944
*N *2622:14 *C 30.992 15.918
*N *2622:15 *C 30.992 15.350
*N *2622:16 *C 30.979 15.336
*N *2622:17 *C 29.790 15.336
*N *2622:18 *C 29.776 15.323
*N *2622:19 *C 29.624 15.336
*N *2622:20 *C 29.624 16.843
*N *2622:21 *C 29.611 16.856
*N *2622:22 *C 23.544 17.299
*N *2622:23 *C 23.544 16.870
*N *2622:24 *C 23.558 16.856
*N *2622:25 *C 29.016 16.856
*N *2622:26 *C 29.016 16.870
*N *2622:27 *C 29.016 17.755

*CAP
0 *399:Q 0.001
1 *385:A4 0.001
2 *295:A2 0.001
3 *55:A2 0.001
4 *357:A2 0.01291315
5 *2622:5 0.01131903
6 *2622:6 0.2445061
7 *2622:7 0.00910544
8 *2622:8 0.09263727
9 *2622:9 0.0937808
10 *2622:10 0.2251916
11 *2622:11 0.2371261
12 *2622:12 0.2167717
13 *2622:13 0.2048372
14 *2622:14 0.0532987
15 *2622:15 0.0412707
16 *2622:16 0.05531084
17 *2622:17 0.05531084
18 *2622:18 0.2517764
19 *2622:19 0.100046
20 *2622:20 0.09081179
21 *2622:21 0.02777831
22 *2622:22 0.03183302
23 *2622:23 0.03297655
24 *2622:24 0.206987
25 *2622:25 0.2365444
26 *2622:26 0.04995783
27 *2622:27 0.04881429

*RES
0 *399:Q *2622:27 1
1 *2622:7 *55:A2 1
2 *2622:14 *2622:13 0.5
3 *2622:14 *2622:7 0.2758334
4 *2622:13 *2622:12 8.390179
5 *2622:9 *2622:8 2.9375
6 *2622:10 *2622:9 0.5
7 *2622:8 *295:A2 1
8 *2622:15 *2622:14 1.015179
9 *2622:16 *2622:15 0.5
10 *2622:18 *2622:17 0.5
11 *2622:18 *2622:6 7.551786
12 *2622:17 *2622:16 2.123214
13 *2622:5 *357:A2 0.2708334
14 *2622:6 *2622:5 1
15 *2622:20 *2622:19 2.690179
16 *2622:21 *2622:20 0.5
17 *2622:26 *2622:25 0.5
18 *2622:25 *2622:24 9.747323
19 *2622:25 *2622:21 1.061607
20 *2622:27 *2622:26 1.580357
21 *2622:23 *2622:22 0.7660714
22 *2622:24 *2622:23 0.5
23 *2622:22 *385:A4 1
24 *2622:19 *2622:18 0.2714286
25 *2622:12 *2622:11 0.5428572
26 *2622:11 *2622:10 9.475893

*END

*D_NET *2626 3.204637 //LENGTH 44.605 LUMPCC 0 DR

*CONN
*I *403:Q O *L 0 *C 22.176 17.008
*I *384:A4 I *L 0.569168 *C 18.984 22.784
*I *385:A2 I *L 0.501039 *C 23.392 17.768
*I *345:A2 I *L 0.501039 *C 32.208 7.736
*I *67:A2 I *L 0.52073 *C 38.083 7.280
*I *321:A4 I *L 0.552216 *C 41.205 10.939
*N *2626:6 *C 41.176 10.928
*N *2626:7 *C 41.176 10.915
*N *2626:8 *C 41.176 10.472
*N *2626:9 *C 40.873 10.472
*N *2626:10 *C 40.858 10.472
*N *2626:11 *C 38.150 10.472
*N *2626:12 *C 38.136 10.459
*N *2626:13 *C 37.954 7.736
*N *2626:14 *C 38.136 7.280
*N *2626:15 *C 38.136 7.294
*N *2626:16 *C 38.136 7.723
*N *2626:17 *C 38.123 7.736
*N *2626:18 *C 38.136 7.750
*N *2626:19 *C 38.136 8.040
*N *2626:20 *C 38.123 8.040
*N *2626:21 *C 32.982 8.040
*N *2626:22 *C 32.968 8.027
*N *2626:23 *C 32.968 7.750
*N *2626:24 *C 32.955 7.736
*N *2626:25 *C 32.221 7.736
*N *2626:26 *C 32.359 7.736
*N *2626:27 *C 32.373 7.736
*N *2626:28 *C 32.359 7.736
*N *2626:29 *C 32.056 7.736
*N *2626:30 *C 32.056 13.498
*N *2626:31 *C 32.043 13.512
*N *2626:32 *C 23.861 13.512
*N *2626:33 *C 23.848 13.526
*N *2626:34 *C 23.848 17.755
*N *2626:35 *C 23.835 17.768
*N *2626:36 *C 23.392 17.586
*N *2626:37 *C 23.392 17.756
*N *2626:38 *C 23.392 17.768
*N *2626:39 *C 18.984 22.771
*N *2626:40 *C 18.984 20.518
*N *2626:41 *C 18.998 20.504
*N *2626:42 *C 20.491 20.504
*N *2626:43 *C 20.504 20.491
*N *2626:44 *C 20.504 17.782
*N *2626:45 *C 20.518 17.768
*N *2626:46 *C 22.176 17.768
*N *2626:47 *C 22.176 17.755
*N *2626:48 *C 22.176 17.021

*CAP
0 *403:Q 0.001
1 *384:A4 0.001
2 *385:A2 0.001
3 *345:A2 0.001
4 *67:A2 0.008147619
5 *321:A4 0.008687637
6 *2626:6 0.00709351
7 *2626:7 0.02923903
8 *2626:8 0.04410315
9 *2626:9 0.01149095
10 *2626:10 0.1184536
11 *2626:11 0.1184537
12 *2626:12 0.08219759
13 *2626:13 0.01306234
14 *2626:14 0.006553493
15 *2626:15 0.0279124
16 *2626:16 0.0277275
17 *2626:17 0.009504369
18 *2626:18 0.01079025
19 *2626:19 0.09476691
20 *2626:20 0.1718472
21 *2626:21 0.1718472
22 *2626:22 0.01225465
23 *2626:23 0.0122545
24 *2626:24 0.02673288
25 *2626:25 0.005156809
26 *2626:26 0.006300341
27 *2626:27 0.02495385
28 *2626:28 0.01034021
29 *2626:29 0.2111042
30 *2626:30 0.1972063
31 *2626:31 0.2311724
32 *2626:32 0.2311724
33 *2626:33 0.1663993
34 *2626:34 0.1663991
35 *2626:35 0.02082026
36 *2626:36 0.01746541
37 *2626:37 0.01276381
38 *2626:38 0.0745119
39 *2626:39 0.1160085
40 *2626:40 0.1171521
41 *2626:41 0.05882579
42 *2626:42 0.05882589
43 *2626:43 0.0828462
44 *2626:44 0.0828462
45 *2626:45 0.07450038
46 *2626:46 0.128192
47 *2626:47 0.04682846
48 *2626:48 0.04572524

*RES
0 *403:Q *2626:48 1
1 *2626:11 *2626:10 4.837501
2 *2626:12 *2626:11 0.5
3 *2626:9 *2626:8 0.5410715
4 *2626:10 *2626:9 0.5
5 *2626:6 *321:A4 0.09166668
6 *2626:7 *2626:6 1
7 *2626:17 *2626:16 0.5
8 *2626:17 *2626:13 0.2825
9 *2626:18 *2626:17 0.5
10 *2626:16 *2626:15 0.7660714
11 *2626:14 *67:A2 0.09166668
12 *2626:15 *2626:14 1
13 *2626:19 *2626:18 0.5187501
14 *2626:19 *2626:12 4.31875
15 *2626:20 *2626:19 0.5
16 *2626:22 *2626:21 0.5
17 *2626:21 *2626:20 9.180358
18 *2626:24 *2626:23 0.5
19 *2626:23 *2626:22 0.4946429
20 *2626:26 *2626:25 0.2455357
21 *2626:27 *2626:26 0.5
22 *2626:27 *2626:24 1.0375
23 *2626:25 *345:A2 1
24 *2626:28 *2626:27 0.5
25 *2626:30 *2626:29 10.29018
26 *2626:31 *2626:30 0.5
27 *2626:33 *2626:32 0.5
28 *2626:32 *2626:31 14.60893
29 *2626:35 *2626:34 0.5
30 *2626:34 *2626:33 7.551786
31 *2626:37 *385:A2 1
32 *2626:37 *2626:36 0.2825
33 *2626:38 *2626:37 0.5
34 *2626:38 *2626:35 0.7901787
35 *2626:47 *2626:46 0.5
36 *2626:46 *2626:45 2.961607
37 *2626:46 *2626:38 2.171429
38 *2626:48 *2626:47 1.308929
39 *2626:45 *2626:44 0.5
40 *2626:44 *2626:43 4.8375
41 *2626:42 *2626:41 2.666071
42 *2626:43 *2626:42 0.5
43 *2626:40 *2626:39 4.023215
44 *2626:41 *2626:40 0.5
45 *2626:39 *384:A4 1
46 *2626:8 *2626:7 0.7901785
47 *2626:29 *2626:28 0.5410715

*END

*D_NET *2630 2.312137 //LENGTH 25.672 LUMPCC 0 DR

*CONN
*I *242:Q O *L 0 *C 23.392 41.176
*I *61:A6 I *L 0.609639 *C 18.224 43.152
*I *91:A4 I *L 0.514778 *C 17.464 45.888
*I *90:A4 I *L 0.566007 *C 15.488 46.192
*I *324:A3 I *L 0.536755 *C 24.456 44.520
*I *324:A1 I *L 0.483711 *C 25.064 44.216
*I *326:A1 I *L 0.502229 *C 28.104 46.040
*N *2630:7 *C 28.104 46.027
*N *2630:8 *C 28.104 44.838
*N *2630:9 *C 28.091 44.824
*N *2630:10 *C 25.078 44.824
*N *2630:11 *C 25.064 44.811
*N *2630:12 *C 25.064 44.230
*N *2630:13 *C 25.064 44.520
*N *2630:14 *C 24.913 44.520
*N *2630:15 *C 24.899 44.520
*N *2630:16 *C 24.456 44.338
*N *2630:17 *C 24.456 44.508
*N *2630:18 *C 24.456 44.520
*N *2630:19 *C 23.405 44.520
*N *2630:20 *C 23.392 44.507
*N *2630:21 *C 15.488 46.192
*N *2630:22 *C 15.488 46.332
*N *2630:23 *C 15.502 46.344
*N *2630:24 *C 17.602 46.344
*N *2630:25 *C 17.616 46.331
*N *2630:26 *C 17.464 45.875
*N *2630:27 *C 17.464 45.736
*N *2630:28 *C 17.616 45.750
*N *2630:29 *C 17.630 45.736
*N *2630:30 *C 18.210 45.736
*N *2630:31 *C 18.224 45.723
*N *2630:32 *C 18.224 43.152
*N *2630:33 *C 18.224 40.886
*N *2630:34 *C 18.238 40.872
*N *2630:35 *C 23.379 40.872
*N *2630:36 *C 23.392 40.886
*N *2630:37 *C 23.392 41.176

*CAP
0 *242:Q 0.001
1 *61:A6 0.001
2 *91:A4 0.001
3 *90:A4 0.001
4 *324:A3 0.001
5 *324:A1 0.001
6 *326:A1 0.001
7 *2630:7 0.06000356
8 *2630:8 0.06114709
9 *2630:9 0.1828506
10 *2630:10 0.1828506
11 *2630:11 0.01358442
12 *2630:12 0.01225877
13 *2630:13 0.03809782
14 *2630:14 0.005773987
15 *2630:15 0.02070397
16 *2630:16 0.01656564
17 *2630:17 0.01186404
18 *2630:18 0.07011525
19 *2630:19 0.04763225
20 *2630:20 0.1511102
21 *2630:21 0.01263344
22 *2630:22 0.01377697
23 *2630:23 0.07752246
24 *2630:24 0.07752246
25 *2630:25 0.03469446
26 *2630:26 0.0102733
27 *2630:27 0.02069758
28 *2630:28 0.04219617
29 *2630:29 0.02203782
30 *2630:30 0.02203782
31 *2630:31 0.1263554
32 *2630:32 0.245057
33 *2630:33 0.1180661
34 *2630:34 0.2165421
35 *2630:35 0.2165421
36 *2630:36 0.011439
37 *2630:37 0.1631847

*RES
0 *242:Q *2630:37 1
1 *2630:11 *2630:10 0.5
2 *2630:10 *2630:9 5.380358
3 *2630:8 *2630:7 2.123214
4 *2630:9 *2630:8 0.5
5 *2630:7 *326:A1 1
6 *2630:12 *324:A1 1
7 *2630:14 *2630:13 0.2696429
8 *2630:15 *2630:14 0.5
9 *2630:17 *324:A3 1
10 *2630:17 *2630:16 0.2825
11 *2630:18 *2630:17 0.5
12 *2630:18 *2630:15 0.7901786
13 *2630:20 *2630:19 0.5
14 *2630:19 *2630:18 1.875893
15 *2630:37 *2630:36 0.5187501
16 *2630:37 *2630:20 5.947322
17 *2630:32 *61:A6 1
18 *2630:32 *2630:31 4.590179
19 *2630:36 *2630:35 0.5
20 *2630:35 *2630:34 9.180358
21 *2630:33 *2630:32 4.047322
22 *2630:34 *2630:33 0.5
23 *2630:31 *2630:30 0.5
24 *2630:30 *2630:29 1.0375
25 *2630:28 *2630:27 0.2714286
26 *2630:28 *2630:25 1.0375
27 *2630:29 *2630:28 0.5
28 *2630:26 *91:A4 1
29 *2630:25 *2630:24 0.5
30 *2630:24 *2630:23 3.751786
31 *2630:22 *2630:21 0.2325
32 *2630:23 *2630:22 0.5
33 *2630:21 *90:A4 1
34 *2630:27 *2630:26 0.2473214
35 *2630:13 *2630:12 0.5187501
36 *2630:13 *2630:11 0.5187501

*END

*D_NET *2637 1.382769 //LENGTH 14.205 LUMPCC 0 DR

*CONN
*I *250:Q O *L 0 *C 35.096 21.112
*I *274:A2 I *L 1.016717 *C 31.752 14.120
*I *53:A4 I *L 0.552216 *C 31.448 11.080
*N *2637:3 *C 31.448 11.081
*N *2637:4 *C 31.448 14.107
*N *2637:5 *C 31.462 14.120
*N *2637:6 *C 31.739 14.120
*N *2637:7 *C 31.752 14.134
*N *2637:8 *C 31.752 18.666
*N *2637:9 *C 31.766 18.680
*N *2637:10 *C 35.083 18.680
*N *2637:11 *C 35.096 18.694
*N *2637:12 *C 35.096 21.099

*CAP
0 *250:Q 0.001
1 *274:A2 0.001
2 *53:A4 0.001
3 *2637:3 0.1596406
4 *2637:4 0.1607841
5 *2637:5 0.01377917
6 *2637:6 0.01377917
7 *2637:7 0.2541627
8 *2637:8 0.2570853
9 *2637:9 0.1385326
10 *2637:10 0.1385326
11 *2637:11 0.1223079
12 *2637:12 0.1211644

*RES
0 *250:Q *2637:12 1
1 *2637:8 *2637:7 8.094644
2 *2637:9 *2637:8 0.5
3 *2637:11 *2637:10 0.5
4 *2637:10 *2637:9 5.923214
5 *2637:12 *2637:11 4.294643
6 *2637:7 *274:A2 1
7 *2637:7 *2637:6 0.5
8 *2637:6 *2637:5 0.4946429
9 *2637:4 *2637:3 5.402678
10 *2637:5 *2637:4 0.5
11 *2637:3 *53:A4 1

*END

*D_NET *2638 1.754643 //LENGTH 20.626 LUMPCC 0 DR

*CONN
*I *244:Q O *L 0 *C 42.848 15.640
*I *295:A4 I *L 0.552216 *C 41.176 17.768
*I *271:A2 I *L 1.016717 *C 33.576 15.944
*I *55:A6 I *L 0.609639 *C 30.232 16.400
*I *288:A1 I *L 0.610599 *C 42.484 19.288
*I *292:A2 I *L 0.538095 *C 42.741 20.656
*N *2638:6 *C 42.696 20.656
*N *2638:7 *C 42.696 20.643
*N *2638:8 *C 42.681 19.288
*N *2638:9 *C 42.696 19.288
*N *2638:10 *C 30.232 16.399
*N *2638:11 *C 30.232 16.262
*N *2638:12 *C 30.245 16.248
*N *2638:13 *C 33.576 15.958
*N *2638:14 *C 33.576 16.235
*N *2638:15 *C 33.576 16.248
*N *2638:16 *C 41.176 17.767
*N *2638:17 *C 41.176 16.262
*N *2638:18 *C 41.176 16.248
*N *2638:19 *C 42.683 16.248
*N *2638:20 *C 42.696 16.248
*N *2638:21 *C 42.848 16.248
*N *2638:22 *C 42.848 15.654

*CAP
0 *244:Q 0.001
1 *295:A4 0.001
2 *271:A2 0.001
3 *55:A6 0.001
4 *288:A1 0.01701676
5 *292:A2 0.009041743
6 *2638:6 0.007447617
7 *2638:7 0.0655826
8 *2638:8 0.01542264
9 *2638:9 0.2132494
10 *2638:10 0.009121143
11 *2638:11 0.01026467
12 *2638:12 0.1375351
13 *2638:13 0.01300096
14 *2638:14 0.01414449
15 *2638:15 0.4227282
16 *2638:16 0.09413593
17 *2638:17 0.09527946
18 *2638:18 0.3421808
19 *2638:19 0.05698775
20 *2638:20 0.1533198
21 *2638:21 0.04226928
22 *2638:22 0.03191464

*RES
0 *244:Q *2638:22 1
1 *2638:22 *2638:21 1.061607
2 *2638:6 *292:A2 0.09166668
3 *2638:7 *2638:6 1
4 *2638:8 *288:A1 0.3940001
5 *2638:9 *2638:8 1
6 *2638:9 *2638:7 2.41875
7 *2638:20 *2638:19 0.5
8 *2638:20 *2638:9 5.428572
9 *2638:19 *2638:18 2.690179
10 *2638:17 *2638:16 2.688393
11 *2638:18 *2638:17 0.5
12 *2638:18 *2638:15 13.57143
13 *2638:16 *295:A4 1
14 *2638:14 *2638:13 0.4946429
15 *2638:15 *2638:14 0.5
16 *2638:15 *2638:12 5.947322
17 *2638:13 *271:A2 1
18 *2638:11 *2638:10 0.2455357
19 *2638:12 *2638:11 0.5
20 *2638:10 *55:A6 1
21 *2638:21 *2638:20 0.2714286

*END

*D_NET *2642 1.632386 //LENGTH 16.088 LUMPCC 0 DR

*CONN
*I *247:Q O *L 0 *C 37.528 14.424
*I *81:A3 I *L 0.572394 *C 37.528 11.080
*I *67:A6 I *L 0.609639 *C 38.744 6.976
*I *506:A1 I *L 0.601783 *C 39.778 12.473
*I *321:A2 I *L 0.52073 *C 41.024 10.624
*I *77:A4 I *L 0.566007 *C 37.680 9.408
*N *2642:6 *C 37.680 9.421
*N *2642:7 *C 41.024 10.624
*N *2642:8 *C 41.024 10.764
*N *2642:9 *C 41.011 10.776
*N *2642:10 *C 38.759 12.448
*N *2642:11 *C 38.744 12.434
*N *2642:12 *C 38.744 6.977
*N *2642:13 *C 38.744 10.776
*N *2642:14 *C 38.744 10.776
*N *2642:15 *C 37.694 10.776
*N *2642:16 *C 37.680 10.776
*N *2642:17 *C 37.680 11.384
*N *2642:18 *C 37.528 11.094
*N *2642:19 *C 37.528 11.384
*N *2642:20 *C 37.528 14.411

*CAP
0 *247:Q 0.001
1 *81:A3 0.001
2 *67:A6 0.001
3 *506:A1 0.05280245
4 *321:A2 0.001
5 *77:A4 0.001
6 *2642:6 0.07878593
7 *2642:7 0.009985544
8 *2642:8 0.01112907
9 *2642:9 0.10051
10 *2642:10 0.05120832
11 *2642:11 0.1062083
12 *2642:12 0.2278878
13 *2642:13 0.3368337
14 *2642:14 0.1475378
15 *2642:15 0.04524879
16 *2642:16 0.1169411
17 *2642:17 0.04442125
18 *2642:18 0.01441701
19 *2642:19 0.1555703
20 *2642:20 0.1278986

*RES
0 *247:Q *2642:20 1
1 *2642:8 *2642:7 0.2325
2 *2642:9 *2642:8 0.5
3 *2642:7 *321:A2 1
4 *2642:10 *506:A1 2.038
5 *2642:11 *2642:10 1
6 *2642:13 *2642:12 6.783929
7 *2642:13 *2642:11 2.961607
8 *2642:14 *2642:13 0.5
9 *2642:14 *2642:9 4.047322
10 *2642:12 *67:A6 1
11 *2642:16 *2642:15 0.5
12 *2642:16 *2642:6 2.41875
13 *2642:15 *2642:14 1.875893
14 *2642:6 *77:A4 1
15 *2642:20 *2642:19 5.404464
16 *2642:18 *81:A3 1
17 *2642:19 *2642:18 0.5187501
18 *2642:19 *2642:17 0.2714286
19 *2642:17 *2642:16 1.085714

*END

*D_NET *2645 1.214423 //LENGTH 13.785 LUMPCC 0 DR

*CONN
*I *364:Q O *L 0 *C 30.384 5.608
*I *356:A4 I *L 0.569168 *C 27.952 10.624
*I *274:A1 I *L 1.20536 *C 32.056 13.968
*I *53:A6 I *L 0.609639 *C 30.840 10.320
*N *2645:4 *C 30.840 10.321
*N *2645:5 *C 30.840 10.472
*N *2645:6 *C 32.056 13.955
*N *2645:7 *C 32.056 10.486
*N *2645:8 *C 32.043 10.472
*N *2645:9 *C 27.952 10.612
*N *2645:10 *C 27.952 10.472
*N *2645:11 *C 27.966 10.472
*N *2645:12 *C 30.384 10.472
*N *2645:13 *C 30.384 10.472
*N *2645:14 *C 30.384 5.622

*CAP
0 *364:Q 0.001
1 *356:A4 0.001
2 *274:A1 0.001
3 *53:A6 0.001
4 *2645:4 0.008702858
5 *2645:5 0.03108077
6 *2645:6 0.1738297
7 *2645:7 0.1749732
8 *2645:8 0.06455176
9 *2645:9 0.01122312
10 *2645:10 0.01236665
11 *2645:11 0.1043099
12 *2645:12 0.1706407
13 *2645:13 0.2396716
14 *2645:14 0.2190727

*RES
0 *364:Q *2645:14 1
1 *2645:7 *2645:6 6.194643
2 *2645:8 *2645:7 0.5
3 *2645:6 *274:A1 1
4 *2645:4 *53:A6 1
5 *2645:13 *2645:12 0.5
6 *2645:13 *2645:5 0.8142857
7 *2645:12 *2645:11 4.31875
8 *2645:12 *2645:8 2.961607
9 *2645:14 *2645:13 8.661608
10 *2645:10 *2645:9 0.2325
11 *2645:11 *2645:10 0.5
12 *2645:9 *356:A4 1
13 *2645:5 *2645:4 0.2696429

*END

*D_NET *2647 1.133759 //LENGTH 13.475 LUMPCC 0 DR

*CONN
*I *366:Q O *L 0 *C 25.520 24.456
*I *358:A4 I *L 0.569168 *C 29.624 22.784
*I *72:A I *L 0.582888 *C 32.512 20.808
*I *57:A4 I *L 0.529682 *C 34.032 22.328
*N *2647:4 *C 34.032 22.341
*N *2647:5 *C 34.032 22.922
*N *2647:6 *C 34.019 22.936
*N *2647:7 *C 32.512 20.822
*N *2647:8 *C 32.512 22.922
*N *2647:9 *C 32.512 22.936
*N *2647:10 *C 29.624 22.784
*N *2647:11 *C 29.624 22.924
*N *2647:12 *C 29.624 22.936
*N *2647:13 *C 25.534 22.936
*N *2647:14 *C 25.520 22.950
*N *2647:15 *C 25.520 24.443

*CAP
0 *366:Q 0.001
1 *358:A4 0.001
2 *72:A 0.001
3 *57:A4 0.001
4 *2647:4 0.03739921
5 *2647:5 0.03854274
6 *2647:6 0.06261606
7 *2647:7 0.1125836
8 *2647:8 0.1137272
9 *2647:9 0.175085
10 *2647:10 0.008602711
11 *2647:11 0.009746242
12 *2647:12 0.2727329
13 *2647:13 0.1602639
14 *2647:14 0.06980137
15 *2647:15 0.06865785

*RES
0 *366:Q *2647:15 1
1 *2647:5 *2647:4 1.0375
2 *2647:6 *2647:5 0.5
3 *2647:4 *57:A4 1
4 *2647:8 *2647:7 3.751786
5 *2647:9 *2647:8 0.5
6 *2647:9 *2647:6 2.690179
7 *2647:7 *72:A 1
8 *2647:11 *2647:10 0.2325
9 *2647:12 *2647:11 0.5
10 *2647:12 *2647:9 5.157143
11 *2647:10 *358:A4 1
12 *2647:14 *2647:13 0.5
13 *2647:13 *2647:12 7.304465
14 *2647:15 *2647:14 2.666071

*END

*D_NET *2649 1.092286 //LENGTH 10.875 LUMPCC 0 DR

*CONN
*I *372:Q O *L 0 *C 36.312 11.080
*I *75:A I *L 0.582888 *C 33.728 7.432
*I *344:A4 I *L 0.569168 *C 34.944 6.064
*I *65:A6 I *L 0.609639 *C 36.160 6.976
*N *2649:4 *C 36.160 6.990
*N *2649:5 *C 34.944 6.078
*N *2649:6 *C 33.728 7.419
*N *2649:7 *C 33.728 7.142
*N *2649:8 *C 33.742 7.128
*N *2649:9 *C 34.931 7.128
*N *2649:10 *C 34.944 7.128
*N *2649:11 *C 34.944 9.242
*N *2649:12 *C 34.958 9.256
*N *2649:13 *C 36.147 9.256
*N *2649:14 *C 36.160 9.256
*N *2649:15 *C 36.312 9.256
*N *2649:16 *C 36.312 11.067

*CAP
0 *372:Q 0.001
1 *75:A 0.001
2 *344:A4 0.001
3 *65:A6 0.001
4 *2649:4 0.1599325
5 *2649:5 0.04749504
6 *2649:6 0.01323233
7 *2649:7 0.01437586
8 *2649:8 0.04974339
9 *2649:9 0.04974339
10 *2649:10 0.1423669
11 *2649:11 0.09194929
12 *2649:12 0.06377434
13 *2649:13 0.06377434
14 *2649:14 0.1685031
15 *2649:15 0.1168728
16 *2649:16 0.1065232

*RES
0 *372:Q *2649:16 1
1 *2649:16 *2649:15 3.233036
2 *2649:4 *65:A6 1
3 *2649:14 *2649:13 0.5
4 *2649:14 *2649:4 4.047322
5 *2649:13 *2649:12 2.123214
6 *2649:11 *2649:10 3.775893
7 *2649:12 *2649:11 0.5
8 *2649:5 *344:A4 1
9 *2649:10 *2649:9 0.5
10 *2649:10 *2649:5 1.875893
11 *2649:9 *2649:8 2.123214
12 *2649:7 *2649:6 0.4946429
13 *2649:8 *2649:7 0.5
14 *2649:6 *75:A 1
15 *2649:15 *2649:14 0.2714286

*END

*D_NET *2653 0.8742556 //LENGTH 9.778 LUMPCC 0 DR

*CONN
*I *360:Q O *L 0 *C 13.816 39.048
*I *88:A I *L 0.582888 *C 12.296 42.696
*I *59:A6 I *L 0.609639 *C 16.248 43.152
*I *348:A4 I *L 0.569168 *C 14.576 42.848
*N *2653:4 *C 14.576 42.836
*N *2653:5 *C 16.248 43.151
*N *2653:6 *C 16.248 42.710
*N *2653:7 *C 16.235 42.696
*N *2653:8 *C 12.296 42.514
*N *2653:9 *C 12.296 42.684
*N *2653:10 *C 12.309 42.696
*N *2653:11 *C 14.576 42.696
*N *2653:12 *C 14.576 42.670
*N *2653:13 *C 14.576 39.669
*N *2653:14 *C 14.562 39.656
*N *2653:15 *C 13.830 39.656
*N *2653:16 *C 13.816 39.643
*N *2653:17 *C 13.816 39.062

*CAP
0 *360:Q 0.001
1 *88:A 0.001
2 *59:A6 0.001
3 *348:A4 0.001
4 *2653:4 0.009242775
5 *2653:5 0.02237499
6 *2653:6 0.02351852
7 *2653:7 0.0745296
8 *2653:8 0.01259025
9 *2653:9 0.007888648
10 *2653:10 0.09379656
11 *2653:11 0.1701052
12 *2653:12 0.1785771
13 *2653:13 0.1664118
14 *2653:14 0.02863502
15 *2653:15 0.02863502
16 *2653:16 0.02754686
17 *2653:17 0.02640333

*RES
0 *360:Q *2653:17 1
1 *2653:6 *2653:5 0.7883929
2 *2653:7 *2653:6 0.5
3 *2653:5 *59:A6 1
4 *2653:4 *348:A4 1
5 *2653:12 *2653:11 0.5
6 *2653:12 *2653:4 0.2758334
7 *2653:11 *2653:10 4.047322
8 *2653:11 *2653:7 2.961607
9 *2653:13 *2653:12 5.358036
10 *2653:14 *2653:13 0.5
11 *2653:16 *2653:15 0.5
12 *2653:15 *2653:14 1.308929
13 *2653:17 *2653:16 1.0375
14 *2653:9 *88:A 1
15 *2653:9 *2653:8 0.2825
16 *2653:10 *2653:9 0.5

*END

*D_NET *2656 1.745607 //LENGTH 17.581 LUMPCC 0 DR

*CONN
*I *363:Q O *L 0 *C 14.576 35.704
*I *351:A4 I *L 0.569168 *C 19.896 34.032
*I *109:A6 I *L 0.609639 *C 20.808 43.152
*I *92:A I *L 0.582888 *C 21.234 44.216
*N *2656:4 *C 14.576 35.522
*N *2656:5 *C 20.823 44.216
*N *2656:6 *C 20.808 44.203
*N *2656:7 *C 20.808 43.152
*N *2656:8 *C 20.808 42.392
*N *2656:9 *C 20.656 42.392
*N *2656:10 *C 20.656 35.718
*N *2656:11 *C 20.643 35.704
*N *2656:12 *C 19.896 34.046
*N *2656:13 *C 19.896 35.691
*N *2656:14 *C 19.896 35.704
*N *2656:15 *C 14.590 35.704
*N *2656:16 *C 14.576 35.692

*CAP
0 *363:Q 0.001
1 *351:A4 0.001
2 *109:A6 0.001
3 *92:A 0.02497021
4 *2656:4 0.01142857
5 *2656:5 0.02337608
6 *2656:6 0.06044644
7 *2656:7 0.1122368
8 *2656:8 0.06077095
9 *2656:9 0.3365319
10 *2656:10 0.3271007
11 *2656:11 0.03671486
12 *2656:12 0.1083359
13 *2656:13 0.1094794
14 *2656:14 0.2814913
15 *2656:15 0.2429975
16 *2656:16 0.006726972

*RES
0 *363:Q *2656:16 1
1 *2656:5 *92:A 0.8220001
2 *2656:6 *2656:5 1
3 *2656:7 *109:A6 1
4 *2656:7 *2656:6 1.875893
5 *2656:10 *2656:9 11.91875
6 *2656:11 *2656:10 0.5
7 *2656:13 *2656:12 2.9375
8 *2656:14 *2656:13 0.5
9 *2656:14 *2656:11 1.333036
10 *2656:12 *351:A4 1
11 *2656:16 *2656:15 0.5
12 *2656:16 *2656:4 0.2825
13 *2656:15 *2656:14 9.475893
14 *2656:9 *2656:8 0.2714286
15 *2656:8 *2656:7 1.357143

*END

*D_NET *2660 0.8604679 //LENGTH 9.808 LUMPCC 0 DR

*CONN
*I *371:Q O *L 0 *C 14.728 32.360
*I *355:A4 I *L 0.569168 *C 19.896 32.816
*I *100:A I *L 0.582888 *C 21.264 32.664
*I *106:A3 I *L 0.507548 *C 21.720 33.576
*N *2660:4 *C 14.728 32.178
*N *2660:5 *C 21.720 33.562
*N *2660:6 *C 21.720 32.361
*N *2660:7 *C 21.719 32.360
*N *2660:8 *C 21.264 32.651
*N *2660:9 *C 21.264 32.373
*N *2660:10 *C 21.264 32.360
*N *2660:11 *C 19.883 32.816
*N *2660:12 *C 19.744 32.816
*N *2660:13 *C 19.744 32.373
*N *2660:14 *C 19.744 32.360
*N *2660:15 *C 14.742 32.360
*N *2660:16 *C 14.728 32.348

*CAP
0 *371:Q 0.001
1 *355:A4 0.001
2 *100:A 0.001
3 *106:A3 0.001
4 *2660:4 0.01298504
5 *2660:5 0.0803614
6 *2660:6 0.08150492
7 *2660:7 0.01866272
8 *2660:8 0.02273102
9 *2660:9 0.02387456
10 *2660:10 0.08016944
11 *2660:11 0.005543495
12 *2660:12 0.03834777
13 *2660:13 0.02810268
14 *2660:14 0.2587041
15 *2660:15 0.1971974
16 *2660:16 0.008283441

*RES
0 *371:Q *2660:16 1
1 *2660:6 *2660:5 2.145536
2 *2660:7 *2660:6 0.5
3 *2660:5 *106:A3 1
4 *2660:9 *2660:8 0.4946429
5 *2660:10 *2660:9 0.5
6 *2660:10 *2660:7 0.8125
7 *2660:8 *100:A 1
8 *2660:13 *2660:12 0.7901786
9 *2660:14 *2660:13 0.5
10 *2660:14 *2660:10 2.714286
11 *2660:11 *355:A4 1
12 *2660:16 *2660:15 0.5
13 *2660:16 *2660:4 0.2825
14 *2660:15 *2660:14 8.933037
15 *2660:12 *2660:11 0.2473214

*END

*D_NET *2665 0.438538 //LENGTH 5.802 LUMPCC 0 DR

*CONN
*I *209:Y O *L 0 *C 9.408 7.128
*I *225:D I *L 0.543569 *C 12.600 9.408
*N *2665:2 *C 12.600 9.395
*N *2665:3 *C 12.600 8.053
*N *2665:4 *C 12.587 8.040
*N *2665:5 *C 9.421 8.040
*N *2665:6 *C 9.408 8.027
*N *2665:7 *C 9.408 7.142

*CAP
0 *209:Y 0.001
1 *225:D 0.001
2 *2665:2 0.05313864
3 *2665:3 0.05428217
4 *2665:4 0.1214812
5 *2665:5 0.1214812
6 *2665:6 0.04364909
7 *2665:7 0.04250556

*RES
0 *209:Y *2665:7 1
1 *2665:2 *225:D 1
2 *2665:3 *2665:2 2.394643
3 *2665:4 *2665:3 0.5
4 *2665:6 *2665:5 0.5
5 *2665:5 *2665:4 5.651786
6 *2665:7 *2665:6 1.580357

*END

*D_NET *2669 0.08454382 //LENGTH 1.227 LUMPCC 0 DR

*CONN
*I *297:Y O *L 0 *C 7.888 22.936
*I *227:D I *L 0.543569 *C 8.496 22.784
*N *2669:2 *C 7.888 22.754
*N *2669:3 *C 8.496 22.784
*N *2669:4 *C 8.496 22.924
*N *2669:5 *C 8.482 22.936
*N *2669:6 *C 7.902 22.936
*N *2669:7 *C 7.888 22.924

*CAP
0 *297:Y 0.001
1 *227:D 0.001
2 *2669:2 0.01185994
3 *2669:3 0.008176769
4 *2669:4 0.009320301
5 *2669:5 0.02301424
6 *2669:6 0.02301424
7 *2669:7 0.00715834

*RES
0 *297:Y *2669:7 1
1 *2669:3 *227:D 1
2 *2669:4 *2669:3 0.2325
3 *2669:5 *2669:4 0.5
4 *2669:7 *2669:6 0.5
5 *2669:7 *2669:2 0.2825
6 *2669:6 *2669:5 1.0375

*END

*D_NET *2672 0.06177463 //LENGTH 0.591 LUMPCC 0 DR

*CONN
*I *265:Y O *L 0 *C 8.635 29.472
*I *223:D I *L 0.543569 *C 9.226 29.472

*CAP
0 *265:Y 0.03088732
1 *223:D 0.03088732

*RES
0 *265:Y *223:D 1.182

*END

*D_NET *2676 0.1539081 //LENGTH 1.638 LUMPCC 0 DR

*CONN
*I *214:Y O *L 0 *C 9.480 36.312
*I *137:D I *L 0.543562 *C 9.834 37.376
*N *2676:2 *C 9.575 37.376
*N *2676:3 *C 9.560 37.363
*N *2676:4 *C 9.560 36.326
*N *2676:5 *C 9.548 36.312

*CAP
0 *214:Y 0.0106501
1 *137:D 0.02153488
2 *2676:2 0.01994075
3 *2676:3 0.04636318
4 *2676:4 0.04636318
5 *2676:5 0.009055975

*RES
0 *214:Y *2676:5 0.1125
1 *2676:2 *137:D 0.5180001
2 *2676:3 *2676:2 1
3 *2676:5 *2676:4 1
4 *2676:4 *2676:3 1.851786

*END

*D_NET *2678 0.2911954 //LENGTH 3.674 LUMPCC 0 DR

*CONN
*I *221:Y O *L 0 *C 11.080 32.816
*I *222:D I *L 0.543569 *C 9.864 30.688
*N *2678:2 *C 9.864 30.702
*N *2678:3 *C 9.864 32.346
*N *2678:4 *C 9.878 32.360
*N *2678:5 *C 11.067 32.360
*N *2678:6 *C 11.080 32.373
*N *2678:7 *C 11.080 32.803

*CAP
0 *221:Y 0.001
1 *222:D 0.001
2 *2678:2 0.06628063
3 *2678:3 0.06742416
4 *2678:4 0.04998032
5 *2678:5 0.04998032
6 *2678:6 0.02833676
7 *2678:7 0.02719323

*RES
0 *221:Y *2678:7 1
1 *2678:2 *222:D 1
2 *2678:3 *2678:2 2.9375
3 *2678:4 *2678:3 0.5
4 *2678:6 *2678:5 0.5
5 *2678:5 *2678:4 2.123214
6 *2678:7 *2678:6 0.7660714

*END

*D_NET *2682 2.852591 //LENGTH 27.558 LUMPCC 0 DR

*CONN
*I *171:Y O *L 0 *C 38.704 26.154
*I *69:A1 I *L 0.496377 *C 41.632 7.584
*I *112:A1 I *L 0.514394 *C 42.208 9.104
*I *65:A1 I *L 0.514394 *C 37.104 7.584
*I *67:A1 I *L 0.514394 *C 37.800 7.584
*N *2682:5 *C 37.376 7.584
*N *2682:6 *C 37.376 7.571
*N *2682:7 *C 37.376 7.142
*N *2682:8 *C 37.390 7.128
*N *2682:9 *C 38.427 7.128
*N *2682:10 *C 38.440 7.142
*N *2682:11 *C 38.440 7.736
*N *2682:12 *C 41.799 9.104
*N *2682:13 *C 41.784 9.091
*N *2682:14 *C 41.784 7.736
*N *2682:15 *C 41.632 7.597
*N *2682:16 *C 41.633 7.736
*N *2682:17 *C 41.619 7.736
*N *2682:18 *C 38.605 7.736
*N *2682:19 *C 38.592 7.750
*N *2682:20 *C 38.592 26.114
*N *2682:21 *C 38.605 26.128

*CAP
0 *171:Y 0.01213371
1 *69:A1 0.001
2 *112:A1 0.03366477
3 *65:A1 0.01724694
4 *67:A1 0.02568863
5 *2682:5 0.04691971
6 *2682:6 0.02955719
7 *2682:7 0.02937229
8 *2682:8 0.04472628
9 *2682:9 0.04472628
10 *2682:10 0.04091858
11 *2682:11 0.05044457
12 *2682:12 0.03207064
13 *2682:13 0.07259816
14 *2682:14 0.08132015
15 *2682:15 0.01118363
16 *2682:16 0.01945503
17 *2682:17 0.1325572
18 *2682:18 0.1325572
19 *2682:19 0.995736
20 *2682:20 0.988174
21 *2682:21 0.01053958

*RES
0 *171:Y *2682:21 0.1658334
1 *2682:12 *112:A1 0.8180001
2 *2682:13 *2682:12 1
3 *2682:15 *69:A1 1
4 *2682:21 *2682:20 1
5 *2682:20 *2682:19 32.79464
6 *2682:16 *2682:15 0.2325
7 *2682:16 *2682:14 0.2696429
8 *2682:17 *2682:16 0.5
9 *2682:19 *2682:18 0.5
10 *2682:19 *2682:11 0.2714286
11 *2682:18 *2682:17 5.380358
12 *2682:10 *2682:9 0.5
13 *2682:9 *2682:8 1.851786
14 *2682:7 *2682:6 0.7660714
15 *2682:8 *2682:7 0.5
16 *2682:5 *65:A1 0.544
17 *2682:5 *67:A1 0.848
18 *2682:6 *2682:5 1
19 *2682:11 *2682:10 1.061607
20 *2682:14 *2682:13 2.418751

*END

*D_NET *2685 0.3915714 //LENGTH 4.828 LUMPCC 0 DR

*CONN
*I *154:Y O *L 0 *C 7.128 42.848
*I *155:A2 I *L 0.466516 *C 8.192 44.216
*I *74:A4 I *L 0.514778 *C 9.712 42.544
*N *2685:3 *C 9.712 42.558
*N *2685:4 *C 9.712 42.986
*N *2685:5 *C 9.699 43.000
*N *2685:6 *C 8.192 44.215
*N *2685:7 *C 8.192 43.014
*N *2685:8 *C 8.192 43.000
*N *2685:9 *C 7.142 43.000
*N *2685:10 *C 7.128 42.988
*N *2685:11 *C 7.128 42.848

*CAP
0 *154:Y 0.001
1 *155:A2 0.001
2 *74:A4 0.001
3 *2685:3 0.02796452
4 *2685:4 0.02910806
5 *2685:5 0.05814128
6 *2685:6 0.06331427
7 *2685:7 0.06432495
8 *2685:8 0.09474652
9 *2685:9 0.03482621
10 *2685:10 0.008644545
11 *2685:11 0.007501013

*RES
0 *154:Y *2685:11 1
1 *2685:4 *2685:3 0.7660714
2 *2685:5 *2685:4 0.5
3 *2685:3 *74:A4 1
4 *2685:7 *2685:6 2.145536
5 *2685:8 *2685:7 0.5
6 *2685:8 *2685:5 2.690179
7 *2685:6 *155:A2 1
8 *2685:10 *2685:9 0.5
9 *2685:9 *2685:8 1.875893
10 *2685:11 *2685:10 0.2325

*END

*D_NET *2687 0.6920605 //LENGTH 7.531 LUMPCC 0 DR

*CONN
*I *152:Y O *L 0 *C 5.456 39.504
*I *78:A4 I *L 0.514778 *C 7.432 39.200
*I *159:A2 I *L 0.578798 *C 8.344 37.528
*I *153:A2 I *L 0.466516 *C 5.758 40.900
*N *2687:4 *C 5.620 40.872
*N *2687:5 *C 5.608 40.858
*N *2687:6 *C 8.344 37.541
*N *2687:7 *C 8.344 39.643
*N *2687:8 *C 8.331 39.656
*N *2687:9 *C 7.432 39.214
*N *2687:10 *C 7.432 39.643
*N *2687:11 *C 7.432 39.656
*N *2687:12 *C 5.622 39.656
*N *2687:13 *C 5.608 39.669
*N *2687:14 *C 5.456 39.656
*N *2687:15 *C 5.456 39.518

*CAP
0 *152:Y 0.001
1 *78:A4 0.001
2 *159:A2 0.001
3 *153:A2 0.006818346
4 *2687:4 0.00522422
5 *2687:5 0.06308684
6 *2687:6 0.1157119
7 *2687:7 0.1168554
8 *2687:8 0.03776428
9 *2687:9 0.03360417
10 *2687:10 0.0347477
11 *2687:11 0.108793
12 *2687:12 0.0692497
13 *2687:13 0.06976394
14 *2687:14 0.01861281
15 *2687:15 0.008828241

*RES
0 *152:Y *2687:15 1
1 *2687:7 *2687:6 3.751786
2 *2687:8 *2687:7 0.5
3 *2687:6 *159:A2 1
4 *2687:10 *2687:9 0.7660714
5 *2687:11 *2687:10 0.5
6 *2687:11 *2687:8 1.604464
7 *2687:9 *78:A4 1
8 *2687:4 *153:A2 0.07083334
9 *2687:5 *2687:4 1
10 *2687:13 *2687:12 0.5
11 *2687:13 *2687:5 2.123214
12 *2687:12 *2687:11 3.233036
13 *2687:15 *2687:14 0.2473214
14 *2687:14 *2687:13 0.2714286

*END

*D_NET *2689 0.3649493 //LENGTH 4.454 LUMPCC 0 DR

*CONN
*I *150:Y O *L 0 *C 5.760 27.344
*I *151:A1 I *L 0.549073 *C 6.520 29.016
*I *265:A3 I *L 0.539281 *C 7.888 29.016
*N *2689:3 *C 7.888 28.834
*N *2689:4 *C 7.888 29.004
*N *2689:5 *C 7.875 29.016
*N *2689:6 *C 6.520 28.884
*N *2689:7 *C 6.520 29.004
*N *2689:8 *C 6.520 29.016
*N *2689:9 *C 5.774 29.016
*N *2689:10 *C 5.760 29.003
*N *2689:11 *C 5.760 27.358

*CAP
0 *150:Y 0.001
1 *151:A1 0.001
2 *265:A3 0.001
3 *2689:3 0.01886473
4 *2689:4 0.01416313
5 *2689:5 0.05042055
6 *2689:6 0.01400133
7 *2689:7 0.007817199
8 *2689:8 0.07436523
9 *2689:9 0.02364818
10 *2689:10 0.07990625
11 *2689:11 0.07876272

*RES
0 *150:Y *2689:11 1
1 *2689:4 *265:A3 1
2 *2689:4 *2689:3 0.2825
3 *2689:5 *2689:4 0.5
4 *2689:7 *151:A1 1
5 *2689:7 *2689:6 0.1991667
6 *2689:8 *2689:7 0.5
7 *2689:8 *2689:5 2.41875
8 *2689:10 *2689:9 0.5
9 *2689:9 *2689:8 1.333036
10 *2689:11 *2689:10 2.9375

*END

*D_NET *2691 0.4002531 //LENGTH 4.758 LUMPCC 0 DR

*CONN
*I *147:Y O *L 0 *C 5.456 24.304
*I *104:A1 I *L 0.484201 *C 6.672 24.152
*I *104:A2 I *L 0.515513 *C 6.824 24.912
*I *148:A I *L 0.582888 *C 5.304 25.976
*N *2691:4 *C 5.304 25.963
*N *2691:5 *C 5.304 24.152
*N *2691:6 *C 6.824 24.899
*N *2691:7 *C 6.824 24.152
*N *2691:8 *C 6.673 24.152
*N *2691:9 *C 6.659 24.152
*N *2691:10 *C 5.470 24.152
*N *2691:11 *C 5.456 24.165
*N *2691:12 *C 5.456 24.292

*CAP
0 *147:Y 0.001
1 *104:A1 0.001
2 *104:A2 0.001
3 *148:A 0.001
4 *2691:4 0.07235804
5 *2691:5 0.08247454
6 *2691:6 0.0330485
7 *2691:7 0.04335231
8 *2691:8 0.002679638
9 *2691:9 0.06400935
10 *2691:10 0.06400935
11 *2691:11 0.02132943
12 *2691:12 0.01299196

*RES
0 *147:Y *2691:12 1
1 *2691:6 *104:A2 1
2 *2691:8 *104:A1 1
3 *2691:8 *2691:7 0.2696429
4 *2691:12 *2691:11 0.2116667
5 *2691:9 *2691:8 0.5
6 *2691:11 *2691:10 0.5
7 *2691:11 *2691:5 0.2714286
8 *2691:10 *2691:9 2.123214
9 *2691:4 *148:A 1
10 *2691:5 *2691:4 3.233036
11 *2691:7 *2691:6 1.333036

*END

*D_NET *2693 0.3572418 //LENGTH 4.319 LUMPCC 0 DR

*CONN
*I *145:Y O *L 0 *C 6.216 20.960
*I *297:A2 I *L 0.515513 *C 6.672 21.872
*I *297:A1 I *L 0.484201 *C 6.520 22.632
*I *146:A I *L 0.582888 *C 5.304 22.632
*N *2693:4 *C 5.304 22.450
*N *2693:5 *C 5.304 22.620
*N *2693:6 *C 5.317 22.632
*N *2693:7 *C 6.506 22.632
*N *2693:8 *C 6.521 22.632
*N *2693:9 *C 6.672 22.632
*N *2693:10 *C 6.672 21.886
*N *2693:11 *C 6.672 21.733
*N *2693:12 *C 6.659 21.720
*N *2693:13 *C 6.230 21.720
*N *2693:14 *C 6.216 21.707
*N *2693:15 *C 6.216 20.974

*CAP
0 *145:Y 0.001
1 *297:A2 0.001
2 *297:A1 0.001
3 *146:A 0.001
4 *2693:4 0.01135258
5 *2693:5 0.006650981
6 *2693:6 0.04455243
7 *2693:7 0.04455243
8 *2693:8 0.002599868
9 *2693:9 0.05204127
10 *2693:10 0.05720751
11 *2693:11 0.01361124
12 *2693:12 0.01674764
13 *2693:13 0.01674764
14 *2693:14 0.04416085
15 *2693:15 0.04301732

*RES
0 *145:Y *2693:15 1
1 *2693:10 *297:A2 1
2 *2693:10 *2693:9 1.333036
3 *2693:8 *297:A1 1
4 *2693:8 *2693:7 0.5
5 *2693:11 *2693:10 0.255
6 *2693:12 *2693:11 0.5
7 *2693:14 *2693:13 0.5
8 *2693:13 *2693:12 0.7660714
9 *2693:15 *2693:14 1.308929
10 *2693:7 *2693:6 2.123214
11 *2693:5 *146:A 1
12 *2693:5 *2693:4 0.2825
13 *2693:6 *2693:5 0.5
14 *2693:9 *2693:8 0.2696429

*END

*D_NET *2697 0.4082597 //LENGTH 5.335 LUMPCC 0 DR

*CONN
*I *141:Y O *L 0 *C 5.456 14.272
*I *311:A2 I *L 0.515513 *C 6.368 15.184
*I *311:A1 I *L 0.484201 *C 6.216 15.944
*I *142:A I *L 0.582888 *C 5.456 17.464
*N *2697:4 *C 5.456 17.451
*N *2697:5 *C 6.216 15.931
*N *2697:6 *C 6.368 15.198
*N *2697:7 *C 6.368 15.336
*N *2697:8 *C 6.216 15.336
*N *2697:9 *C 6.203 15.336
*N *2697:10 *C 5.470 15.336
*N *2697:11 *C 5.456 15.336
*N *2697:12 *C 5.456 14.286

*CAP
0 *141:Y 0.001
1 *311:A2 0.001
2 *311:A1 0.001
3 *142:A 0.001
4 *2697:4 0.07705334
5 *2697:5 0.03504146
6 *2697:6 0.010257
7 *2697:7 0.02001806
8 *2697:8 0.04302349
9 *2697:9 0.02718611
10 *2697:10 0.02718611
11 *2697:11 0.1228068
12 *2697:12 0.04168734

*RES
0 *141:Y *2697:12 1
1 *2697:6 *311:A2 1
2 *2697:5 *311:A1 1
3 *2697:4 *142:A 1
4 *2697:8 *2697:7 0.2714286
5 *2697:8 *2697:5 1.061607
6 *2697:9 *2697:8 0.5
7 *2697:11 *2697:10 0.5
8 *2697:11 *2697:4 3.775893
9 *2697:10 *2697:9 1.308929
10 *2697:12 *2697:11 1.875893
11 *2697:7 *2697:6 0.2473214

*END

*D_NET *2700 0.5778215 //LENGTH 6.766 LUMPCC 0 DR

*CONN
*I *203:Y O *L 0 *C 11.202 9.104
*I *209:A1 I *L 0.484201 *C 8.040 7.432
*I *209:A2 I *L 0.515513 *C 8.192 8.192
*I *204:A I *L 0.582888 *C 7.432 9.256
*N *2700:4 *C 7.432 9.074
*N *2700:5 *C 7.432 9.244
*N *2700:6 *C 7.446 9.256
*N *2700:7 *C 8.192 8.178
*N *2700:8 *C 8.192 8.040
*N *2700:9 *C 8.040 7.446
*N *2700:10 *C 8.040 8.040
*N *2700:11 *C 8.040 9.242
*N *2700:12 *C 8.040 9.256
*N *2700:13 *C 10.915 9.256
*N *2700:14 *C 10.928 9.242
*N *2700:15 *C 10.928 9.105
*N *2700:16 *C 10.928 9.104

*CAP
0 *203:Y 0.0187624
1 *209:A1 0.001
2 *209:A2 0.001
3 *204:A 0.001
4 *2700:4 0.01123124
5 *2700:5 0.006529637
6 *2700:6 0.02205765
7 *2700:7 0.009897457
8 *2700:8 0.02000366
9 *2700:9 0.02197047
10 *2700:10 0.08292895
11 *2700:11 0.04907325
12 *2700:12 0.1553361
13 *2700:13 0.1314994
14 *2700:14 0.009801564
15 *2700:15 0.009986471
16 *2700:16 0.02574328

*RES
0 *203:Y *2700:16 0.548
1 *2700:14 *2700:13 0.5
2 *2700:13 *2700:12 5.133037
3 *2700:16 *2700:15 1
4 *2700:15 *2700:14 0.2455357
5 *2700:7 *209:A2 1
6 *2700:11 *2700:10 2.147322
7 *2700:12 *2700:11 0.5
8 *2700:12 *2700:6 1.061607
9 *2700:9 *209:A1 1
10 *2700:5 *204:A 1
11 *2700:5 *2700:4 0.2825
12 *2700:6 *2700:5 0.5
13 *2700:10 *2700:9 1.061607
14 *2700:10 *2700:8 0.2714286
15 *2700:8 *2700:7 0.2473214

*END

*D_NET *2703 4.674791 //LENGTH 53.480 LUMPCC 0 DR

*CONN
*I *161:Y O *L 0 *C 9.408 40.720
*I *166:A5 I *L 0.542358 *C 6.976 36.160
*I *214:A5 I *L 0.542358 *C 8.800 36.160
*I *87:A5 I *L 0.542358 *C 7.888 27.344
*I *297:A5 I *L 0.542358 *C 7.280 22.784
*I *310:A5 I *L 0.542358 *C 6.368 19.440
*I *311:A5 I *L 0.542358 *C 6.976 16.096
*I *205:A5 I *L 0.542358 *C 6.216 10.624
*I *212:A1 I *L 0.601783 *C 8.648 9.104
*I *504:A5 I *L 0.542358 *C 11.688 6.064
*I *209:A5 I *L 0.542358 *C 8.800 7.280
*I *104:A5 I *L 0.542358 *C 7.432 24.000
*I *78:A5 I *L 0.542358 *C 6.976 39.504
*I *74:A5 I *L 0.542358 *C 9.256 42.848
*N *2703:14 *C 9.256 42.835
*N *2703:15 *C 6.976 39.492
*N *2703:16 *C 6.976 39.352
*N *2703:17 *C 6.990 39.352
*N *2703:18 *C 7.432 24.014
*N *2703:19 *C 8.800 7.293
*N *2703:20 *C 11.688 6.078
*N *2703:21 *C 11.688 7.419
*N *2703:22 *C 11.675 7.432
*N *2703:23 *C 8.814 7.432
*N *2703:24 *C 8.800 7.446
*N *2703:25 *C 8.800 8.648
*N *2703:26 *C 8.648 8.648
*N *2703:27 *C 8.648 9.104
*N *2703:28 *C 8.648 10.763
*N *2703:29 *C 8.635 10.776
*N *2703:30 *C 6.216 10.624
*N *2703:31 *C 6.216 10.764
*N *2703:32 *C 6.230 10.776
*N *2703:33 *C 7.280 10.776
*N *2703:34 *C 7.280 10.790
*N *2703:35 *C 6.976 16.084
*N *2703:36 *C 6.976 15.944
*N *2703:37 *C 6.990 15.944
*N *2703:38 *C 7.267 15.944
*N *2703:39 *C 7.280 15.944
*N *2703:40 *C 6.368 19.428
*N *2703:41 *C 6.368 19.288
*N *2703:42 *C 6.381 19.288
*N *2703:43 *C 7.267 19.288
*N *2703:44 *C 7.280 19.288
*N *2703:45 *C 7.280 22.784
*N *2703:46 *C 7.280 24.152
*N *2703:47 *C 7.432 24.152
*N *2703:48 *C 7.888 24.152
*N *2703:49 *C 7.888 27.344
*N *2703:50 *C 7.888 28.712
*N *2703:51 *C 7.736 28.712
*N *2703:52 *C 7.736 31.600
*N *2703:53 *C 7.280 31.600
*N *2703:54 *C 8.800 36.174
*N *2703:55 *C 8.800 36.602
*N *2703:56 *C 8.787 36.616
*N *2703:57 *C 6.976 36.174
*N *2703:58 *C 6.976 36.602
*N *2703:59 *C 6.990 36.616
*N *2703:60 *C 7.280 36.616
*N *2703:61 *C 7.280 36.616
*N *2703:62 *C 7.280 39.339
*N *2703:63 *C 7.280 39.352
*N *2703:64 *C 9.242 39.352
*N *2703:65 *C 9.256 39.366
*N *2703:66 *C 9.256 40.568
*N *2703:67 *C 9.408 40.568
*N *2703:68 *C 9.408 40.707

*CAP
0 *161:Y 0.001
1 *166:A5 0.001
2 *214:A5 0.001
3 *87:A5 0.001
4 *297:A5 0.001
5 *310:A5 0.001
6 *311:A5 0.001
7 *205:A5 0.001
8 *212:A1 0.001
9 *504:A5 0.001
10 *209:A5 0.001
11 *104:A5 0.001
12 *78:A5 0.001
13 *74:A5 0.001
14 *2703:14 0.1125964
15 *2703:15 0.0148797
16 *2703:16 0.01602324
17 *2703:17 0.01367894
18 *2703:18 0.007307431
19 *2703:19 0.01308354
20 *2703:20 0.06695478
21 *2703:21 0.0680983
22 *2703:22 0.1039596
23 *2703:23 0.1039596
24 *2703:24 0.09463481
25 *2703:25 0.08763713
26 *2703:26 0.03224415
27 *2703:27 0.1041762
28 *2703:28 0.080305
29 *2703:29 0.05156016
30 *2703:30 0.01486381
31 *2703:31 0.01600735
32 *2703:32 0.0376025
33 *2703:33 0.0909417
34 *2703:34 0.2739995
35 *2703:35 0.009589999
36 *2703:36 0.01073353
37 *2703:37 0.01381379
38 *2703:38 0.01381379
39 *2703:39 0.408304
40 *2703:40 0.008238504
41 *2703:41 0.009382036
42 *2703:42 0.04214885
43 *2703:43 0.04214885
44 *2703:44 0.2816876
45 *2703:45 0.2016578
46 *2703:46 0.06174501
47 *2703:47 0.03356877
48 *2703:48 0.1472492
49 *2703:49 0.1838848
50 *2703:50 0.06381026
51 *2703:51 0.1554354
52 *2703:52 0.1663075
53 *2703:53 0.2364473
54 *2703:54 0.03128424
55 *2703:55 0.03242777
56 *2703:56 0.05744564
57 *2703:57 0.02641469
58 *2703:58 0.02755822
59 *2703:59 0.01197598
60 *2703:60 0.07120065
61 *2703:61 0.3430249
62 *2703:62 0.1246898
63 *2703:63 0.09339459
64 *2703:64 0.07793662
65 *2703:65 0.05769293
66 *2703:66 0.1821643
67 *2703:67 0.01959798
68 *2703:68 0.009502072

*RES
0 *161:Y *2703:68 1
1 *2703:68 *2703:67 0.2473214
2 *2703:14 *74:A5 1
3 *2703:19 *209:A5 1
4 *2703:24 *2703:23 0.5
5 *2703:24 *2703:19 0.255
6 *2703:23 *2703:22 5.108929
7 *2703:21 *2703:20 2.394643
8 *2703:22 *2703:21 0.5
9 *2703:20 *504:A5 1
10 *2703:27 *212:A1 1
11 *2703:27 *2703:26 0.8142858
12 *2703:49 *87:A5 1
13 *2703:49 *2703:48 5.700001
14 *2703:18 *104:A5 1
15 *2703:65 *2703:64 0.5
16 *2703:64 *2703:63 3.504464
17 *2703:55 *2703:54 0.7660714
18 *2703:56 *2703:55 0.5
19 *2703:54 *214:A5 1
20 *2703:28 *2703:27 2.961607
21 *2703:29 *2703:28 0.5
22 *2703:62 *2703:61 4.861607
23 *2703:63 *2703:62 0.5
24 *2703:63 *2703:17 0.5187501
25 *2703:61 *2703:60 0.5
26 *2703:61 *2703:53 8.957144
27 *2703:60 *2703:59 0.5187501
28 *2703:60 *2703:56 2.690179
29 *2703:45 *297:A5 1
30 *2703:45 *2703:44 6.242857
31 *2703:34 *2703:33 0.5
32 *2703:33 *2703:32 1.875893
33 *2703:33 *2703:29 2.41875
34 *2703:16 *2703:15 0.2325
35 *2703:17 *2703:16 0.5
36 *2703:15 *78:A5 1
37 *2703:58 *2703:57 0.7660714
38 *2703:59 *2703:58 0.5
39 *2703:57 *166:A5 1
40 *2703:39 *2703:38 0.5
41 *2703:39 *2703:34 9.204465
42 *2703:38 *2703:37 0.4946429
43 *2703:36 *2703:35 0.2325
44 *2703:37 *2703:36 0.5
45 *2703:35 *311:A5 1
46 *2703:44 *2703:43 0.5
47 *2703:44 *2703:39 5.971429
48 *2703:43 *2703:42 1.580357
49 *2703:41 *2703:40 0.2325
50 *2703:42 *2703:41 0.5
51 *2703:40 *310:A5 1
52 *2703:31 *2703:30 0.2325
53 *2703:32 *2703:31 0.5
54 *2703:30 *205:A5 1
55 *2703:46 *2703:45 2.442857
56 *2703:47 *2703:46 0.2714286
57 *2703:47 *2703:18 0.2473214
58 *2703:48 *2703:47 0.8142858
59 *2703:53 *2703:52 0.8142858
60 *2703:52 *2703:51 5.157144
61 *2703:51 *2703:50 0.2714286
62 *2703:50 *2703:49 2.442857
63 *2703:26 *2703:25 0.2714286
64 *2703:25 *2703:24 2.147322
65 *2703:66 *2703:65 2.147322
66 *2703:66 *2703:14 4.047322
67 *2703:67 *2703:66 0.2714286

*END

*D_NET *2715 0.4769927 //LENGTH 4.671 LUMPCC 0 DR

*CONN
*I *226:Q O *L 0 *C 8.648 24.456
*I *104:A4 I *L 0.514778 *C 6.976 24.304
*I *147:A2 I *L 0.466516 *C 5.760 24.152
*N *2715:3 *C 5.760 24.151
*N *2715:4 *C 5.760 23.861
*N *2715:5 *C 5.774 23.848
*N *2715:6 *C 6.976 24.291
*N *2715:7 *C 6.976 23.861
*N *2715:8 *C 6.976 23.848
*N *2715:9 *C 8.635 23.848
*N *2715:10 *C 8.648 23.861
*N *2715:11 *C 8.648 24.443

*CAP
0 *226:Q 0.001
1 *104:A4 0.001
2 *147:A2 0.001
3 *2715:3 0.01967291
4 *2715:4 0.0206836
5 *2715:5 0.06220197
6 *2715:6 0.02315629
7 *2715:7 0.02429983
8 *2715:8 0.1659485
9 *2715:9 0.1019675
10 *2715:10 0.02860284
11 *2715:11 0.02745931

*RES
0 *226:Q *2715:11 1
1 *2715:10 *2715:9 0.5
2 *2715:9 *2715:8 2.961607
3 *2715:11 *2715:10 1.0375
4 *2715:7 *2715:6 0.7660715
5 *2715:8 *2715:7 0.5
6 *2715:8 *2715:5 2.147322
7 *2715:6 *104:A4 1
8 *2715:4 *2715:3 0.5169643
9 *2715:5 *2715:4 0.5
10 *2715:3 *147:A2 1

*END

*D_NET *2719 0.8316242 //LENGTH 9.560 LUMPCC 0 DR

*CONN
*I *234:Q O *L 0 *C 7.432 14.424
*I *205:A4 I *L 0.514778 *C 6.672 10.928
*I *139:A4 I *L 0.565045 *C 10.168 9.256
*N *2719:3 *C 10.168 9.270
*N *2719:4 *C 10.168 11.370
*N *2719:5 *C 10.155 11.384
*N *2719:6 *C 6.672 10.942
*N *2719:7 *C 6.672 11.370
*N *2719:8 *C 6.686 11.384
*N *2719:9 *C 7.432 11.384
*N *2719:10 *C 7.432 11.398
*N *2719:11 *C 7.432 14.411

*CAP
0 *234:Q 0.001
1 *205:A4 0.001
2 *139:A4 0.001
3 *2719:3 0.08973721
4 *2719:4 0.09088074
5 *2719:5 0.1081699
6 *2719:6 0.02217384
7 *2719:7 0.02331738
8 *2719:8 0.03011256
9 *2719:9 0.1400615
10 *2719:10 0.1626573
11 *2719:11 0.1615137

*RES
0 *234:Q *2719:11 1
1 *2719:4 *2719:3 3.751786
2 *2719:5 *2719:4 0.5
3 *2719:3 *139:A4 1
4 *2719:10 *2719:9 0.5
5 *2719:9 *2719:8 1.333036
6 *2719:9 *2719:5 4.861607
7 *2719:11 *2719:10 5.380357
8 *2719:7 *2719:6 0.7660715
9 *2719:8 *2719:7 0.5
10 *2719:6 *205:A4 1

*END

*D_NET *2723 0.4438037 //LENGTH 5.169 LUMPCC 0 DR

*CONN
*I *295:Y O *L 0 *C 42.240 17.920
*I *244:D I *L 0.543562 *C 39.200 16.096
*N *2723:2 *C 39.200 16.110
*N *2723:3 *C 39.200 16.538
*N *2723:4 *C 39.214 16.552
*N *2723:5 *C 42.227 16.552
*N *2723:6 *C 42.240 16.566
*N *2723:7 *C 42.240 17.919

*CAP
0 *295:Y 0.001
1 *244:D 0.001
2 *2723:2 0.02609229
3 *2723:3 0.02723582
4 *2723:4 0.1239849
5 *2723:5 0.1239849
6 *2723:6 0.07082463
7 *2723:7 0.0696811

*RES
0 *295:Y *2723:7 1
1 *2723:2 *244:D 1
2 *2723:3 *2723:2 0.7660714
3 *2723:4 *2723:3 0.5
4 *2723:6 *2723:5 0.5
5 *2723:5 *2723:4 5.380358
6 *2723:7 *2723:6 2.416965

*END

*D_NET *2724 0.6098499 //LENGTH 5.199 LUMPCC 0 DR

*CONN
*I *330:Y O *L 0 *C 34.488 24.304
*I *249:D I *L 0.543562 *C 38.744 24.000
*N *2724:2 *C 38.744 23.988
*N *2724:3 *C 38.744 23.848
*N *2724:4 *C 38.730 23.848
*N *2724:5 *C 34.502 23.848
*N *2724:6 *C 34.488 23.861
*N *2724:7 *C 34.488 24.291

*CAP
0 *330:Y 0.001
1 *249:D 0.001
2 *2724:2 0.01396593
3 *2724:3 0.01510946
4 *2724:4 0.2657886
5 *2724:5 0.2657886
6 *2724:6 0.0241705
7 *2724:7 0.02302697

*RES
0 *330:Y *2724:7 1
1 *2724:2 *249:D 1
2 *2724:3 *2724:2 0.2325
3 *2724:4 *2724:3 0.5
4 *2724:6 *2724:5 0.5
5 *2724:5 *2724:4 7.551786
6 *2724:7 *2724:6 0.7660715

*END

*D_NET *2728 0.7794778 //LENGTH 7.504 LUMPCC 0 DR

*CONN
*I *318:Y O *L 0 *C 26.098 44.368
*I *240:D I *L 0.543562 *C 23.848 39.504
*N *2728:2 *C 23.848 39.504
*N *2728:3 *C 23.848 39.644
*N *2728:4 *C 23.861 39.656
*N *2728:5 *C 25.659 39.656
*N *2728:6 *C 25.672 39.669
*N *2728:7 *C 25.672 44.355
*N *2728:8 *C 25.687 44.368

*CAP
0 *318:Y 0.02476692
1 *240:D 0.001
2 *2728:2 0.01379174
3 *2728:3 0.01493528
4 *2728:4 0.07079336
5 *2728:5 0.07079336
6 *2728:6 0.2800197
7 *2728:7 0.2802046
8 *2728:8 0.02317279

*RES
0 *318:Y *2728:8 0.8220001
1 *2728:2 *240:D 1
2 *2728:3 *2728:2 0.2325
3 *2728:4 *2728:3 0.5
4 *2728:6 *2728:5 0.5
5 *2728:5 *2728:4 3.208929
6 *2728:8 *2728:7 1
7 *2728:7 *2728:6 8.366073

*END

*D_NET *2733 0.2173006 //LENGTH 2.164 LUMPCC 0 DR

*CONN
*I *293:Y O *L 0 *C 40.264 20.960
*I *250:D I *L 0.543562 *C 38.744 20.656
*N *2733:2 *C 38.744 20.656
*N *2733:3 *C 38.744 20.796
*N *2733:4 *C 38.758 20.808
*N *2733:5 *C 40.251 20.808
*N *2733:6 *C 40.264 20.808
*N *2733:7 *C 40.264 20.948

*CAP
0 *293:Y 0.001
1 *250:D 0.001
2 *2733:2 0.01394321
3 *2733:3 0.01508674
4 *2733:4 0.08117817
5 *2733:5 0.08117817
6 *2733:6 0.01252891
7 *2733:7 0.01138538

*RES
0 *293:Y *2733:7 1
1 *2733:2 *250:D 1
2 *2733:3 *2733:2 0.2325
3 *2733:4 *2733:3 0.5
4 *2733:6 *2733:5 0.5
5 *2733:5 *2733:4 2.666071
6 *2733:7 *2733:6 0.2325

*END

*D_NET *2737 0.3264531 //LENGTH 4.257 LUMPCC 0 DR

*CONN
*I *505:Y O *L 0 *C 26.736 34.640
*I *339:D I *L 0.543569 *C 27.952 37.376
*N *2737:2 *C 27.952 37.363
*N *2737:3 *C 27.952 36.630
*N *2737:4 *C 27.939 36.616
*N *2737:5 *C 26.750 36.616
*N *2737:6 *C 26.736 36.602
*N *2737:7 *C 26.736 34.641

*CAP
0 *505:Y 0.001
1 *339:D 0.001
2 *2737:2 0.02961516
3 *2737:3 0.0307587
4 *2737:4 0.04483152
5 *2737:5 0.04483152
6 *2737:6 0.08777985
7 *2737:7 0.08663633

*RES
0 *505:Y *2737:7 1
1 *2737:2 *339:D 1
2 *2737:3 *2737:2 1.308929
3 *2737:4 *2737:3 0.5
4 *2737:6 *2737:5 0.5
5 *2737:5 *2737:4 2.123214
6 *2737:7 *2737:6 3.502679

*END

*D_NET *2741 0.2665655 //LENGTH 3.000 LUMPCC 0 DR

*CONN
*I *257:Y O *L 0 *C 46.940 19.136
*I *264:A2 I *L 0.570549 *C 46.648 21.568
*N *2741:2 *C 46.648 21.555
*N *2741:3 *C 46.648 20.808
*N *2741:4 *C 46.800 20.808
*N *2741:5 *C 46.800 19.149
*N *2741:6 *C 46.812 19.136

*CAP
0 *257:Y 0.01141865
1 *264:A2 0.001
2 *2741:2 0.03708007
3 *2741:3 0.04686606
4 *2741:4 0.08441687
5 *2741:5 0.07595932
6 *2741:6 0.009824521

*RES
0 *257:Y *2741:6 0.2116667
1 *2741:2 *264:A2 1
2 *2741:6 *2741:5 1
3 *2741:5 *2741:4 2.961607
4 *2741:3 *2741:2 1.333036
5 *2741:4 *2741:3 0.2714286

*END

*D_NET *2745 0.8862346 //LENGTH 9.693 LUMPCC 0 DR

*CONN
*I *273:Y O *L 0 *C 32.208 30.688
*I *277:A5 I *L 0.583269 *C 29.624 34.184
*I *505:A1 I *L 0.514394 *C 28.104 34.336
*I *505:A3 I *L 0.507548 *C 27.648 33.576
*N *2745:4 *C 27.648 33.758
*N *2745:5 *C 27.648 33.589
*N *2745:6 *C 27.662 33.576
*N *2745:7 *C 28.104 34.323
*N *2745:8 *C 28.104 33.590
*N *2745:9 *C 28.104 33.576
*N *2745:10 *C 29.624 34.183
*N *2745:11 *C 29.624 33.590
*N *2745:12 *C 29.624 33.576
*N *2745:13 *C 30.219 33.576
*N *2745:14 *C 30.232 33.562
*N *2745:15 *C 30.232 31.462
*N *2745:16 *C 30.245 31.448
*N *2745:17 *C 32.195 31.448
*N *2745:18 *C 32.208 31.434
*N *2745:19 *C 32.208 30.702

*CAP
0 *273:Y 0.001
1 *277:A5 0.001
2 *505:A1 0.001
3 *505:A3 0.001
4 *2745:4 0.01306215
5 *2745:5 0.008360552
6 *2745:6 0.0209615
7 *2745:7 0.03485875
8 *2745:8 0.03600228
9 *2745:9 0.08763292
10 *2745:10 0.03513195
11 *2745:11 0.03627549
12 *2745:12 0.09361542
13 *2745:13 0.026944
14 *2745:14 0.1228043
15 *2745:15 0.1228043
16 *2745:16 0.07560111
17 *2745:17 0.07560111
18 *2745:18 0.04686116
19 *2745:19 0.04571762

*RES
0 *273:Y *2745:19 1
1 *2745:14 *2745:13 0.5
2 *2745:13 *2745:12 1.061607
3 *2745:15 *2745:14 3.751786
4 *2745:16 *2745:15 0.5
5 *2745:18 *2745:17 0.5
6 *2745:17 *2745:16 3.480357
7 *2745:19 *2745:18 1.308929
8 *2745:11 *2745:10 1.059821
9 *2745:12 *2745:11 0.5
10 *2745:12 *2745:9 2.714286
11 *2745:10 *277:A5 1
12 *2745:8 *2745:7 1.308929
13 *2745:9 *2745:8 0.5
14 *2745:9 *2745:6 0.7901786
15 *2745:7 *505:A1 1
16 *2745:5 *505:A3 1
17 *2745:5 *2745:4 0.2825
18 *2745:6 *2745:5 0.5

*END

*D_NET *2752 0.4191028 //LENGTH 4.217 LUMPCC 0 DR

*CONN
*I *283:Y O *L 0 *C 33.880 32.968
*I *284:A6 I *L 0.609639 *C 33.272 29.776
*N *2752:2 *C 33.272 29.777
*N *2752:3 *C 33.272 30.219
*N *2752:4 *C 33.285 30.232
*N *2752:5 *C 33.715 30.232
*N *2752:6 *C 33.728 30.245
*N *2752:7 *C 33.728 32.056
*N *2752:8 *C 33.880 32.056
*N *2752:9 *C 33.880 32.955

*CAP
0 *283:Y 0.001
1 *284:A6 0.001
2 *2752:2 0.02425713
3 *2752:3 0.02540066
4 *2752:4 0.02660778
5 *2752:5 0.02660778
6 *2752:6 0.1110813
7 *2752:7 0.1202419
8 *2752:8 0.04660517
9 *2752:9 0.03630109

*RES
0 *283:Y *2752:9 1
1 *2752:2 *284:A6 1
2 *2752:3 *2752:2 0.7883929
3 *2752:4 *2752:3 0.5
4 *2752:6 *2752:5 0.5
5 *2752:5 *2752:4 0.7660714
6 *2752:9 *2752:8 1.604465
7 *2752:7 *2752:6 3.233036
8 *2752:8 *2752:7 0.2714286

*END

*D_NET *2754 0.5053347 //LENGTH 7.503 LUMPCC 0 DR

*CONN
*I *285:Y O *L 0 *C 23.076 27.648
*I *286:A2 I *L 0.466516 *C 25.827 30.867
*N *2754:2 *C 22.754 27.800
*N *2754:3 *C 25.490 30.840
*N *2754:4 *C 25.672 30.658
*N *2754:5 *C 25.684 30.840
*N *2754:6 *C 25.672 30.828
*N *2754:7 *C 25.660 30.840
*N *2754:8 *C 25.672 30.827
*N *2754:9 *C 25.672 30.550
*N *2754:10 *C 25.659 30.536
*N *2754:11 *C 22.950 30.536
*N *2754:12 *C 22.936 30.523
*N *2754:13 *C 22.936 27.814
*N *2754:14 *C 22.924 27.800
*N *2754:15 *C 22.936 27.788
*N *2754:16 *C 22.936 27.648
*N *2754:17 *C 22.949 27.648

*CAP
0 *285:Y 0.01252499
1 *286:A2 0.01085739
2 *2754:2 0.0115
3 *2754:3 0.0130918
4 *2754:4 0.01598926
5 *2754:5 0.00926326
6 *2754:6 0.0126161
7 *2754:7 0.009533837
8 *2754:8 0.01263316
9 *2754:9 0.01263331
10 *2754:10 0.08184631
11 *2754:11 0.08184631
12 *2754:12 0.09111171
13 *2754:13 0.09111156
14 *2754:14 0.007942034
15 *2754:15 0.009858941
16 *2754:16 0.01004385
17 *2754:17 0.01093087

*RES
0 *285:Y *2754:17 0.2116667
1 *2754:5 *286:A2 0.2366667
2 *2754:6 *2754:5 1
3 *2754:6 *2754:4 0.2825
4 *2754:7 *2754:6 0.5
5 *2754:7 *2754:3 0.2825
6 *2754:8 *2754:7 0.5
7 *2754:9 *2754:8 0.4946429
8 *2754:10 *2754:9 0.5
9 *2754:12 *2754:11 0.5
10 *2754:11 *2754:10 4.8375
11 *2754:14 *2754:13 0.5
12 *2754:14 *2754:2 0.2825
13 *2754:13 *2754:12 4.837501
14 *2754:15 *2754:14 0.5
15 *2754:17 *2754:16 1
16 *2754:16 *2754:15 0.2325

*END

*D_NET *2759 0.1720691 //LENGTH 1.855 LUMPCC 0 DR

*CONN
*I *292:Y O *L 0 *C 41.784 21.264
*I *293:A3 I *L 0.519105 *C 40.872 20.960
*N *2759:2 *C 40.872 20.948
*N *2759:3 *C 40.872 20.808
*N *2759:4 *C 40.886 20.808
*N *2759:5 *C 41.771 20.808
*N *2759:6 *C 41.784 20.822
*N *2759:7 *C 41.784 21.251

*CAP
0 *292:Y 0.001
1 *293:A3 0.001
2 *2759:2 0.007285278
3 *2759:3 0.008428809
4 *2759:4 0.05131179
5 *2759:5 0.05131179
6 *2759:6 0.02643751
7 *2759:7 0.02529398

*RES
0 *292:Y *2759:7 1
1 *2759:2 *293:A3 1
2 *2759:3 *2759:2 0.2325
3 *2759:4 *2759:3 0.5
4 *2759:6 *2759:5 0.5
5 *2759:5 *2759:4 1.580357
6 *2759:7 *2759:6 0.7660714

*END

*D_NET *2763 1.067331 //LENGTH 12.681 LUMPCC 0 DR

*CONN
*I *253:Y O *L 0 *C 43.456 14.120
*I *267:A I *L 0.582888 *C 44.824 19.288
*I *257:A1 I *L 0.549073 *C 46.800 18.984
*I *298:A2 I *L 0.509119 *C 46.648 17.768
*I *296:A2 I *L 0.578798 *C 45.584 17.464
*N *2763:5 *C 45.584 17.451
*N *2763:6 *C 45.584 17.174
*N *2763:7 *C 45.598 17.160
*N *2763:8 *C 46.635 17.160
*N *2763:9 *C 46.648 17.174
*N *2763:10 *C 46.648 17.768
*N *2763:11 *C 46.648 18.059
*N *2763:12 *C 46.648 18.073
*N *2763:13 *C 46.800 18.756
*N *2763:14 *C 46.800 18.983
*N *2763:15 *C 46.799 18.984
*N *2763:16 *C 46.648 18.984
*N *2763:17 *C 44.824 19.274
*N *2763:18 *C 44.824 18.998
*N *2763:19 *C 44.824 18.984
*N *2763:20 *C 43.470 18.984
*N *2763:21 *C 43.456 18.971
*N *2763:22 *C 43.456 14.134

*CAP
0 *253:Y 0.001
1 *267:A 0.001
2 *257:A1 0.001
3 *298:A2 0.001
4 *296:A2 0.001
5 *2763:5 0.01906933
6 *2763:6 0.02021287
7 *2763:7 0.04619157
8 *2763:8 0.04619157
9 *2763:9 0.0364772
10 *2763:10 0.0568847
11 *2763:11 0.019772
12 *2763:12 0.02749189
13 *2763:13 0.01675785
14 *2763:14 0.01205625
15 *2763:15 0.003507043
16 *2763:16 0.08970696
17 *2763:17 0.02141004
18 *2763:18 0.02255357
19 *2763:19 0.09809267
20 *2763:20 0.04294271
21 *2763:21 0.2420779
22 *2763:22 0.2409344

*RES
0 *253:Y *2763:22 1
1 *2763:14 *257:A1 1
2 *2763:14 *2763:13 0.4053571
3 *2763:15 *2763:14 0.5
4 *2763:11 *2763:10 0.5187501
5 *2763:12 *2763:11 0.5
6 *2763:10 *298:A2 1
7 *2763:10 *2763:9 1.061607
8 *2763:9 *2763:8 0.5
9 *2763:8 *2763:7 1.851786
10 *2763:6 *2763:5 0.4946428
11 *2763:7 *2763:6 0.5
12 *2763:5 *296:A2 1
13 *2763:18 *2763:17 0.4946429
14 *2763:19 *2763:18 0.5
15 *2763:19 *2763:16 3.257143
16 *2763:17 *267:A 1
17 *2763:21 *2763:20 0.5
18 *2763:20 *2763:19 2.41875
19 *2763:22 *2763:21 8.637501
20 *2763:16 *2763:15 0.2696429
21 *2763:16 *2763:12 1.626786

*END

*D_NET *2769 0.4654781 //LENGTH 4.524 LUMPCC 0 DR

*CONN
*I *294:Y O *L 0 *C 46.952 16.096
*I *202:A3 I *L 0.518192 *C 45.584 13.512
*I *302:A5 I *L 0.557577 *C 45.736 15.944
*N *2769:3 *C 45.723 15.944
*N *2769:4 *C 45.584 13.526
*N *2769:5 *C 45.584 15.944
*N *2769:6 *C 45.598 15.944
*N *2769:7 *C 46.939 15.944
*N *2769:8 *C 46.952 15.944
*N *2769:9 *C 46.952 16.084

*CAP
0 *294:Y 0.001
1 *202:A3 0.001
2 *302:A5 0.001
3 *2769:3 0.006405686
4 *2769:4 0.153484
5 *2769:5 0.1639558
6 *2769:6 0.05391346
7 *2769:7 0.05391346
8 *2769:8 0.0159746
9 *2769:9 0.01483107

*RES
0 *294:Y *2769:9 1
1 *2769:3 *302:A5 1
2 *2769:5 *2769:4 4.31875
3 *2769:5 *2769:3 0.2473214
4 *2769:6 *2769:5 0.5
5 *2769:8 *2769:7 0.5
6 *2769:7 *2769:6 2.394643
7 *2769:9 *2769:8 0.2325
8 *2769:4 *202:A3 1

*END

*D_NET *2773 0.2791111 //LENGTH 3.066 LUMPCC 0 DR

*CONN
*I *314:Y O *L 0 *C 34.336 41.024
*I *315:A3 I *L 0.656896 *C 35.248 42.848
*N *2773:2 *C 35.248 42.835
*N *2773:3 *C 35.248 41.797
*N *2773:4 *C 35.235 41.784
*N *2773:5 *C 34.349 41.784
*N *2773:6 *C 34.336 41.771
*N *2773:7 *C 34.336 41.038

*CAP
0 *314:Y 0.001
1 *315:A3 0.001
2 *2773:2 0.05401437
3 *2773:3 0.05515791
4 *2773:4 0.04630849
5 *2773:5 0.04630849
6 *2773:6 0.03823269
7 *2773:7 0.03708916

*RES
0 *314:Y *2773:7 1
1 *2773:2 *315:A3 1
2 *2773:3 *2773:2 1.851786
3 *2773:4 *2773:3 0.5
4 *2773:6 *2773:5 0.5
5 *2773:5 *2773:4 1.580357
6 *2773:7 *2773:6 1.308929

*END

*D_NET *2775 0.4633386 //LENGTH 5.847 LUMPCC 0 DR

*CONN
*I *261:Y O *L 0 *C 32.664 42.696
*I *315:A1 I *L 0.521202 *C 35.704 42.696
*I *262:A1 I *L 0.549073 *C 36.312 41.176
*N *2775:3 *C 32.664 42.514
*N *2775:4 *C 36.312 41.177
*N *2775:5 *C 36.312 42.683
*N *2775:6 *C 36.299 42.696
*N *2775:7 *C 35.704 42.514
*N *2775:8 *C 35.704 42.684
*N *2775:9 *C 35.704 42.696
*N *2775:10 *C 32.678 42.696
*N *2775:11 *C 32.664 42.684

*CAP
0 *261:Y 0.001
1 *315:A1 0.001
2 *262:A1 0.001
3 *2775:3 0.01571986
4 *2775:4 0.06786831
5 *2775:5 0.06901184
6 *2775:6 0.02110519
7 *2775:7 0.01337284
8 *2775:8 0.008671241
9 *2775:9 0.1382276
10 *2775:10 0.1153434
11 *2775:11 0.01101826

*RES
0 *261:Y *2775:11 1
1 *2775:5 *2775:4 2.688393
2 *2775:6 *2775:5 0.5
3 *2775:4 *262:A1 1
4 *2775:8 *315:A1 1
5 *2775:8 *2775:7 0.2825
6 *2775:9 *2775:8 0.5
7 *2775:9 *2775:6 1.061607
8 *2775:11 *2775:10 0.5
9 *2775:11 *2775:3 0.2825
10 *2775:10 *2775:9 5.404464

*END

*D_NET *2777 0.2968071 //LENGTH 3.457 LUMPCC 0 DR

*CONN
*I *316:Y O *L 0 *C 28.864 44.672
*I *318:A1 I *L 0.549073 *C 25.976 44.520
*N *2777:2 *C 25.976 44.388
*N *2777:3 *C 25.976 44.508
*N *2777:4 *C 25.989 44.520
*N *2777:5 *C 28.851 44.520
*N *2777:6 *C 28.864 44.520
*N *2777:7 *C 28.864 44.660

*CAP
0 *316:Y 0.001
1 *318:A1 0.001
2 *2777:2 0.01243556
3 *2777:3 0.006251432
4 *2777:4 0.1289907
5 *2777:5 0.1304732
6 *2777:6 0.008899882
7 *2777:7 0.00775635

*RES
0 *316:Y *2777:7 1
1 *2777:3 *318:A1 1
2 *2777:3 *2777:2 0.1991667
3 *2777:4 *2777:3 0.5
4 *2777:6 *2777:5 0.5
5 *2777:5 *2777:4 5.108929
6 *2777:7 *2777:6 0.2325

*END

*D_NET *2781 0.3705803 //LENGTH 3.679 LUMPCC 0 DR

*CONN
*I *323:Y O *L 0 *C 25.976 46.192
*I *324:A6 I *L 0.639573 *C 24.152 44.672
*N *2781:2 *C 24.152 44.686
*N *2781:3 *C 24.152 46.027
*N *2781:4 *C 24.166 46.040
*N *2781:5 *C 25.963 46.040
*N *2781:6 *C 25.976 46.040
*N *2781:7 *C 25.976 46.180

*CAP
0 *323:Y 0.001
1 *324:A6 0.001
2 *2781:2 0.09567259
3 *2781:3 0.09681612
4 *2781:4 0.07967819
5 *2781:5 0.07967819
6 *2781:6 0.008939364
7 *2781:7 0.007795833

*RES
0 *323:Y *2781:7 1
1 *2781:2 *324:A6 1
2 *2781:3 *2781:2 2.394643
3 *2781:4 *2781:3 0.5
4 *2781:6 *2781:5 0.5
5 *2781:5 *2781:4 3.208929
6 *2781:7 *2781:6 0.2325

*END

*D_NET *2782 0.2048907 //LENGTH 2.286 LUMPCC 0 DR

*CONN
*I *324:Y O *L 0 *C 23.544 43.912
*I *325:A3 I *L 0.532459 *C 22.328 43.304
*N *2782:2 *C 22.328 43.122
*N *2782:3 *C 22.328 43.291
*N *2782:4 *C 22.341 43.304
*N *2782:5 *C 23.530 43.304
*N *2782:6 *C 23.544 43.318
*N *2782:7 *C 23.544 43.899

*CAP
0 *324:Y 0.001
1 *325:A3 0.001
2 *2782:2 0.01241861
3 *2782:3 0.00771701
4 *2782:4 0.05433184
5 *2782:5 0.05433184
6 *2782:6 0.03761746
7 *2782:7 0.03647393

*RES
0 *324:Y *2782:7 1
1 *2782:3 *325:A3 1
2 *2782:3 *2782:2 0.2825
3 *2782:4 *2782:3 0.5
4 *2782:6 *2782:5 0.5
5 *2782:5 *2782:4 2.123214
6 *2782:7 *2782:6 1.0375

*END

*D_NET *2785 1.087425 //LENGTH 12.489 LUMPCC 0 DR

*CONN
*I *319:Y O *L 0 *C 31.600 40.720
*I *236:A3 I *L 0.518192 *C 27.952 40.264
*I *327:A4 I *L 0.552216 *C 27.832 42.392
*I *324:A4 I *L 0.513828 *C 24.760 44.368
*N *2785:4 *C 24.760 44.355
*N *2785:5 *C 24.760 43.925
*N *2785:6 *C 24.774 43.912
*N *2785:7 *C 28.091 43.912
*N *2785:8 *C 28.104 43.899
*N *2785:9 *C 28.089 42.392
*N *2785:10 *C 28.104 42.392
*N *2785:11 *C 27.953 40.264
*N *2785:12 *C 28.104 40.278
*N *2785:13 *C 28.117 40.264
*N *2785:14 *C 31.587 40.264
*N *2785:15 *C 31.600 40.278
*N *2785:16 *C 31.600 40.707

*CAP
0 *319:Y 0.001
1 *236:A3 0.001
2 *327:A4 0.01941292
3 *324:A4 0.001
4 *2785:4 0.0250443
5 *2785:5 0.02618783
6 *2785:6 0.1536963
7 *2785:7 0.1536963
8 *2785:8 0.06459118
9 *2785:9 0.0178188
10 *2785:10 0.1800949
11 *2785:11 0.004512609
12 *2785:12 0.120975
13 *2785:13 0.1401006
14 *2785:14 0.1401006
15 *2785:15 0.01966879
16 *2785:16 0.01852526

*RES
0 *319:Y *2785:16 1
1 *2785:12 *2785:11 0.2696429
2 *2785:12 *2785:10 3.775893
3 *2785:13 *2785:12 0.5
4 *2785:15 *2785:14 0.5
5 *2785:14 *2785:13 6.194643
6 *2785:16 *2785:15 0.7660713
7 *2785:11 *236:A3 1
8 *2785:9 *327:A4 0.5140001
9 *2785:10 *2785:9 1
10 *2785:10 *2785:8 2.690179
11 *2785:8 *2785:7 0.5
12 *2785:7 *2785:6 5.923215
13 *2785:5 *2785:4 0.7660714
14 *2785:6 *2785:5 0.5
15 *2785:4 *324:A4 1

*END

*D_NET *2787 0.4954545 //LENGTH 5.456 LUMPCC 0 DR

*CONN
*I *326:Y O *L 0 *C 26.736 46.344
*I *327:A1 I *L 0.514394 *C 27.997 42.544
*N *2787:2 *C 27.952 42.544
*N *2787:3 *C 27.952 42.558
*N *2787:4 *C 27.952 42.986
*N *2787:5 *C 27.939 43.000
*N *2787:6 *C 26.750 43.000
*N *2787:7 *C 26.736 43.014
*N *2787:8 *C 26.736 46.331

*CAP
0 *326:Y 0.001
1 *327:A1 0.00950536
2 *2787:2 0.007911233
3 *2787:3 0.03011194
4 *2787:4 0.02992704
5 *2787:5 0.05530843
6 *2787:6 0.05530843
7 *2787:7 0.1537628
8 *2787:8 0.1526193

*RES
0 *326:Y *2787:8 1
1 *2787:2 *327:A1 0.09166668
2 *2787:3 *2787:2 1
3 *2787:4 *2787:3 0.7660714
4 *2787:5 *2787:4 0.5
5 *2787:7 *2787:6 0.5
6 *2787:6 *2787:5 2.123214
7 *2787:8 *2787:7 5.923214

*END

*D_NET *2791 0.4803028 //LENGTH 5.707 LUMPCC 0 DR

*CONN
*I *328:Y O *L 0 *C 39.504 24.608
*I *330:A1 I *L 0.549073 *C 34.336 24.456
*N *2791:2 *C 34.336 24.324
*N *2791:3 *C 34.336 24.444
*N *2791:4 *C 34.349 24.456
*N *2791:5 *C 39.491 24.456
*N *2791:6 *C 39.504 24.470
*N *2791:7 *C 39.504 24.607

*CAP
0 *328:Y 0.001
1 *330:A1 0.001
2 *2791:2 0.01078208
3 *2791:3 0.004597949
4 *2791:4 0.2221512
5 *2791:5 0.2236337
6 *2791:6 0.00914074
7 *2791:7 0.007997209

*RES
0 *328:Y *2791:7 1
1 *2791:3 *330:A1 1
2 *2791:3 *2791:2 0.1991667
3 *2791:4 *2791:3 0.5
4 *2791:6 *2791:5 0.5
5 *2791:5 *2791:4 9.180358
6 *2791:7 *2791:6 0.2455357

*END

*D_NET *2794 0.4541962 //LENGTH 5.194 LUMPCC 0 DR

*CONN
*I *331:Y O *L 0 *C 43.608 19.440
*I *295:A3 I *L 0.507548 *C 41.328 16.856
*N *2794:2 *C 41.328 16.870
*N *2794:3 *C 41.328 18.363
*N *2794:4 *C 41.342 18.376
*N *2794:5 *C 43.595 18.376
*N *2794:6 *C 43.608 18.390
*N *2794:7 *C 43.608 19.427

*CAP
0 *331:Y 0.001
1 *295:A3 0.001
2 *2794:2 0.07651866
3 *2794:3 0.07766219
4 *2794:4 0.09174594
5 *2794:5 0.09174594
6 *2794:6 0.05783352
7 *2794:7 0.05668999

*RES
0 *331:Y *2794:7 1
1 *2794:2 *295:A3 1
2 *2794:3 *2794:2 2.666071
3 *2794:4 *2794:3 0.5
4 *2794:6 *2794:5 0.5
5 *2794:5 *2794:4 4.023215
6 *2794:7 *2794:6 1.851786

*END

*D_NET *2796 1.132823 //LENGTH 11.947 LUMPCC 0 DR

*CONN
*I *238:QN O *L 0 *C 30.992 30.248
*I *279:A3 I *L 0.536755 *C 32.512 32.360
*I *279:A1 I *L 0.483711 *C 31.904 32.664
*I *258:A3 I *L 0.584801 *C 32.694 34.361
*I *284:A2 I *L 0.52073 *C 34.032 29.472
*N *2796:5 *C 34.032 29.486
*N *2796:6 *C 34.032 30.523
*N *2796:7 *C 34.019 30.536
*N *2796:8 *C 33.257 34.336
*N *2796:9 *C 33.272 34.323
*N *2796:10 *C 31.904 32.482
*N *2796:11 *C 31.904 32.651
*N *2796:12 *C 31.918 32.664
*N *2796:13 *C 32.512 32.361
*N *2796:14 *C 32.512 32.651
*N *2796:15 *C 32.512 32.664
*N *2796:16 *C 33.259 32.664
*N *2796:17 *C 33.272 32.664
*N *2796:18 *C 33.272 31.144
*N *2796:19 *C 33.576 31.144
*N *2796:20 *C 33.576 30.550
*N *2796:21 *C 33.576 30.536
*N *2796:22 *C 31.158 30.536
*N *2796:23 *C 31.144 30.523
*N *2796:24 *C 31.144 30.232
*N *2796:25 *C 30.993 30.232
*N *2796:26 *C 30.992 30.232

*CAP
0 *238:QN 0.005717706
1 *279:A3 0.001
2 *279:A1 0.001
3 *258:A3 0.04054548
4 *284:A2 0.001
5 *2796:5 0.06675136
6 *2796:6 0.06789488
7 *2796:7 0.01754468
8 *2796:8 0.03895135
9 *2796:9 0.0887976
10 *2796:10 0.01568699
11 *2796:11 0.01098539
12 *2796:12 0.02796616
13 *2796:13 0.02310599
14 *2796:14 0.02424952
15 *2796:15 0.06521032
16 *2796:16 0.03546512
17 *2796:17 0.1681301
18 *2796:18 0.09157477
19 *2796:19 0.05092137
20 *2796:20 0.03708501
21 *2796:21 0.1116718
22 *2796:22 0.09234806
23 *2796:23 0.01493656
24 *2796:24 0.02423448
25 *2796:25 0.00592476
26 *2796:26 0.004123579

*RES
0 *238:QN *2796:26 0.02727273
1 *2796:6 *2796:5 1.851786
2 *2796:7 *2796:6 0.5
3 *2796:5 *284:A2 1
4 *2796:20 *2796:19 1.061607
5 *2796:21 *2796:20 0.5
6 *2796:21 *2796:7 0.7901786
7 *2796:8 *258:A3 1.126
8 *2796:9 *2796:8 1
9 *2796:17 *2796:16 0.5
10 *2796:17 *2796:9 2.961607
11 *2796:16 *2796:15 1.333036
12 *2796:14 *2796:13 0.5169643
13 *2796:15 *2796:14 0.5
14 *2796:15 *2796:12 1.061607
15 *2796:13 *279:A3 1
16 *2796:11 *279:A1 1
17 *2796:11 *2796:10 0.2825
18 *2796:12 *2796:11 0.5
19 *2796:23 *2796:22 0.5
20 *2796:22 *2796:21 4.31875
21 *2796:26 *2796:25 1
22 *2796:25 *2796:24 0.2696429
23 *2796:24 *2796:23 0.5187501
24 *2796:18 *2796:17 2.714286
25 *2796:19 *2796:18 0.5428572

*END

*D_NET *2801 0.5113626 //LENGTH 5.815 LUMPCC 0 DR

*CONN
*I *242:QN O *L 0 *C 23.575 41.318
*I *260:A2 I *L 0.5761 *C 25.064 40.568
*I *324:A5 I *L 0.551519 *C 24.304 44.064
*N *2801:3 *C 24.304 44.050
*N *2801:4 *C 24.304 41.480
*N *2801:5 *C 25.064 40.582
*N *2801:6 *C 25.064 41.467
*N *2801:7 *C 25.050 41.480
*N *2801:8 *C 24.166 41.480
*N *2801:9 *C 24.153 41.480
*N *2801:10 *C 24.152 41.340
*N *2801:11 *C 24.137 41.328

*CAP
0 *242:QN 0.03603493
1 *260:A2 0.001
2 *324:A5 0.001
3 *2801:3 0.1177055
4 *2801:4 0.1277852
5 *2801:5 0.04246151
6 *2801:6 0.04360504
7 *2801:7 0.03477714
8 *2801:8 0.03477714
9 *2801:9 0.02237387
10 *2801:10 0.01540155
11 *2801:11 0.03444081

*RES
0 *242:QN *2801:11 1.124
1 *2801:3 *324:A5 1
2 *2801:9 *2801:8 0.5
3 *2801:9 *2801:4 0.2696429
4 *2801:8 *2801:7 1.580357
5 *2801:6 *2801:5 1.580357
6 *2801:7 *2801:6 0.5
7 *2801:5 *260:A2 1
8 *2801:11 *2801:10 1
9 *2801:10 *2801:9 0.2325
10 *2801:4 *2801:3 4.590179

*END

*D_NET *2804 1.11562 //LENGTH 12.822 LUMPCC 0 DR

*CONN
*I *250:QN O *L 0 *C 34.944 21.264
*I *255:A1 I *L 0.529859 *C 39.656 18.984
*I *292:A5 I *L 0.557577 *C 42.240 20.808
*I *288:A3 I *L 0.519105 *C 42.848 19.136
*N *2804:4 *C 42.848 19.123
*N *2804:5 *C 42.848 18.984
*N *2804:6 *C 42.835 18.984
*N *2804:7 *C 42.240 20.794
*N *2804:8 *C 42.240 18.998
*N *2804:9 *C 42.240 18.984
*N *2804:10 *C 39.656 18.802
*N *2804:11 *C 39.656 18.972
*N *2804:12 *C 39.656 18.984
*N *2804:13 *C 34.958 18.984
*N *2804:14 *C 34.944 18.998
*N *2804:15 *C 34.944 21.263

*CAP
0 *250:QN 0.001
1 *255:A1 0.001
2 *292:A5 0.001
3 *288:A3 0.001
4 *2804:4 0.01189366
5 *2804:5 0.01303719
6 *2804:6 0.0227297
7 *2804:7 0.1170498
8 *2804:8 0.1181934
9 *2804:9 0.1110961
10 *2804:10 0.01590832
11 *2804:11 0.01120672
12 *2804:12 0.2677114
13 *2804:13 0.179345
14 *2804:14 0.1222961
15 *2804:15 0.1211526

*RES
0 *250:QN *2804:15 1
1 *2804:5 *2804:4 0.2325
2 *2804:6 *2804:5 0.5
3 *2804:4 *288:A3 1
4 *2804:8 *2804:7 3.208929
5 *2804:9 *2804:8 0.5
6 *2804:9 *2804:6 1.061607
7 *2804:7 *292:A5 1
8 *2804:11 *255:A1 1
9 *2804:11 *2804:10 0.2825
10 *2804:12 *2804:11 0.5
11 *2804:12 *2804:9 4.614286
12 *2804:14 *2804:13 0.5
13 *2804:13 *2804:12 8.390179
14 *2804:15 *2804:14 4.045536

*END

*D_NET *2808 0.4277851 //LENGTH 4.870 LUMPCC 0 DR

*CONN
*I *239:QN O *L 0 *C 31.006 28.877
*I *284:A3 I *L 0.507548 *C 33.728 29.928
*I *284:A1 I *L 0.514394 *C 34.184 29.168
*N *2808:3 *C 34.184 29.168
*N *2808:4 *C 34.184 29.308
*N *2808:5 *C 34.171 29.320
*N *2808:6 *C 33.728 29.915
*N *2808:7 *C 33.728 29.321
*N *2808:8 *C 33.728 29.320
*N *2808:9 *C 31.158 29.320
*N *2808:10 *C 31.144 29.306
*N *2808:11 *C 31.144 28.878
*N *2808:12 *C 31.132 28.864

*CAP
0 *239:QN 0.0103076
1 *284:A3 0.001
2 *284:A1 0.001
3 *2808:3 0.0151507
4 *2808:4 0.01629423
5 *2808:5 0.01608199
6 *2808:6 0.03486743
7 *2808:7 0.03601096
8 *2808:8 0.1293128
9 *2808:9 0.1114517
10 *2808:10 0.02370465
11 *2808:11 0.02388955
12 *2808:12 0.00871347

*RES
0 *239:QN *2808:12 0.21
1 *2808:4 *2808:3 0.2325
2 *2808:5 *2808:4 0.5
3 *2808:3 *284:A1 1
4 *2808:7 *2808:6 1.059821
5 *2808:8 *2808:7 0.5
6 *2808:8 *2808:5 0.7901787
7 *2808:6 *284:A3 1
8 *2808:10 *2808:9 0.5
9 *2808:9 *2808:8 4.590179
10 *2808:12 *2808:11 1
11 *2808:11 *2808:10 0.7660714

*END

*D_NET *2811 0.4935035 //LENGTH 5.047 LUMPCC 0 DR

*CONN
*I *357:Y O *L 0 *C 28.864 11.232
*I *365:D I *L 0.543569 *C 26.280 9.408
*N *2811:2 *C 26.280 9.396
*N *2811:3 *C 26.280 9.256
*N *2811:4 *C 26.294 9.256
*N *2811:5 *C 28.851 9.256
*N *2811:6 *C 28.864 9.270
*N *2811:7 *C 28.864 11.219

*CAP
0 *357:Y 0.001
1 *365:D 0.001
2 *2811:2 0.007631524
3 *2811:3 0.008775056
4 *2811:4 0.1312083
5 *2811:5 0.1312083
6 *2811:6 0.1069119
7 *2811:7 0.1057684

*RES
0 *357:Y *2811:7 1
1 *2811:2 *365:D 1
2 *2811:3 *2811:2 0.2325
3 *2811:4 *2811:3 0.5
4 *2811:6 *2811:5 0.5
5 *2811:5 *2811:4 4.566072
6 *2811:7 *2811:6 3.480357

*END

*D_NET *2815 0.1596292 //LENGTH 1.528 LUMPCC 0 DR

*CONN
*I *353:Y O *L 0 *C 18.498 27.952
*I *369:D I *L 0.543569 *C 17.798 27.344
*N *2815:2 *C 18.209 27.344
*N *2815:3 *C 18.224 27.358
*N *2815:4 *C 18.224 27.939
*N *2815:5 *C 18.239 27.952

*CAP
0 *353:Y 0.0188021
1 *369:D 0.02657314
2 *2815:2 0.02497901
3 *2815:3 0.03603348
4 *2815:4 0.03603348
5 *2815:5 0.01720797

*RES
0 *353:Y *2815:5 0.5180001
1 *2815:2 *369:D 0.822
2 *2815:3 *2815:2 1
3 *2815:5 *2815:4 1
4 *2815:4 *2815:3 1.0375

*END

*D_NET *2819 0.6859518 //LENGTH 8.606 LUMPCC 0 DR

*CONN
*I *349:Y O *L 0 *C 18.194 41.328
*I *361:D I *L 0.543569 *C 14.260 37.376
*N *2819:2 *C 14.133 37.376
*N *2819:3 *C 14.120 37.390
*N *2819:4 *C 14.120 40.555
*N *2819:5 *C 14.134 40.568
*N *2819:6 *C 17.299 40.568
*N *2819:7 *C 17.312 40.582
*N *2819:8 *C 17.312 41.315
*N *2819:9 *C 17.327 41.328

*CAP
0 *349:Y 0.04857349
1 *361:D 0.01390455
2 *2819:2 0.01231042
3 *2819:3 0.1403528
4 *2819:4 0.1401679
5 *2819:5 0.1125486
6 *2819:6 0.1125486
7 *2819:7 0.02919059
8 *2819:8 0.0293755
9 *2819:9 0.04697936

*RES
0 *349:Y *2819:9 1.734
1 *2819:2 *361:D 0.2116667
2 *2819:3 *2819:2 1
3 *2819:4 *2819:3 5.651786
4 *2819:5 *2819:4 0.5
5 *2819:7 *2819:6 0.5
6 *2819:6 *2819:5 5.651786
7 *2819:9 *2819:8 1
8 *2819:8 *2819:7 1.308929

*END

*D_NET *2823 0.2310757 //LENGTH 2.263 LUMPCC 0 DR

*CONN
*I *345:Y O *L 0 *C 31.418 7.888
*I *373:D I *L 0.543569 *C 30.840 9.408
*N *2823:2 *C 30.840 9.395
*N *2823:3 *C 30.840 7.902
*N *2823:4 *C 30.855 7.888

*CAP
0 *345:Y 0.03066639
1 *373:D 0.001
2 *2823:2 0.08450433
3 *2823:3 0.08583276
4 *2823:4 0.02907226

*RES
0 *345:Y *2823:4 1.126
1 *2823:2 *373:D 1
2 *2823:4 *2823:3 1
3 *2823:3 *2823:2 2.666072

*END

*D_NET *2827 0.1282819 //LENGTH 1.855 LUMPCC 0 DR

*CONN
*I *393:Y O *L 0 *C 16.704 11.232
*I *401:D I *L 0.543569 *C 15.792 10.624
*N *2827:2 *C 15.792 10.624
*N *2827:3 *C 15.792 10.764
*N *2827:4 *C 15.806 10.776
*N *2827:5 *C 16.691 10.776
*N *2827:6 *C 16.704 10.790
*N *2827:7 *C 16.704 11.219

*CAP
0 *393:Y 0.001
1 *401:D 0.001
2 *2827:2 0.006422794
3 *2827:3 0.007566326
4 *2827:4 0.03781605
5 *2827:5 0.03781605
6 *2827:6 0.01890209
7 *2827:7 0.01775856

*RES
0 *393:Y *2827:7 1
1 *2827:2 *401:D 1
2 *2827:3 *2827:2 0.2325
3 *2827:4 *2827:3 0.5
4 *2827:6 *2827:5 0.5
5 *2827:5 *2827:4 1.580357
6 *2827:7 *2827:6 0.7660714

*END

*D_NET *2829 0.5648851 //LENGTH 7.626 LUMPCC 0 DR

*CONN
*I *391:Y O *L 0 *C 18.224 15.488
*I *397:D I *L 0.543569 *C 12.448 13.968
*N *2829:2 *C 12.448 13.982
*N *2829:3 *C 12.448 14.411
*N *2829:4 *C 12.462 14.424
*N *2829:5 *C 18.210 14.424
*N *2829:6 *C 18.224 14.438
*N *2829:7 *C 18.224 15.475

*CAP
0 *391:Y 0.001
1 *397:D 0.001
2 *2829:2 0.01754122
3 *2829:3 0.01868475
4 *2829:4 0.2065334
5 *2829:5 0.2065334
6 *2829:6 0.05736794
7 *2829:7 0.0562244

*RES
0 *391:Y *2829:7 1
1 *2829:2 *397:D 1
2 *2829:3 *2829:2 0.7660715
3 *2829:4 *2829:3 0.5
4 *2829:6 *2829:5 0.5
5 *2829:5 *2829:4 10.26607
6 *2829:7 *2829:6 1.851786

*END

*D_NET *2831 0.439784 //LENGTH 6.258 LUMPCC 0 DR

*CONN
*I *389:Y O *L 0 *C 16.856 17.920
*I *400:D I *L 0.543569 *C 12.752 16.096
*N *2831:2 *C 12.752 16.110
*N *2831:3 *C 12.752 17.451
*N *2831:4 *C 12.766 17.464
*N *2831:5 *C 16.843 17.464
*N *2831:6 *C 16.856 17.477
*N *2831:7 *C 16.856 17.907

*CAP
0 *389:Y 0.001
1 *400:D 0.001
2 *2831:2 0.04860098
3 *2831:3 0.04974451
4 *2831:4 0.1469932
5 *2831:5 0.1469932
6 *2831:6 0.02329782
7 *2831:7 0.02215429

*RES
0 *389:Y *2831:7 1
1 *2831:2 *400:D 1
2 *2831:3 *2831:2 2.394643
3 *2831:4 *2831:3 0.5
4 *2831:6 *2831:5 0.5
5 *2831:5 *2831:4 7.280358
6 *2831:7 *2831:6 0.7660715

*END

*D_NET *2834 0.5284805 //LENGTH 6.415 LUMPCC 0 DR

*CONN
*I *386:Y O *L 0 *C 20.808 12.144
*I *408:D I *L 0.543569 *C 17.464 9.408
*N *2834:2 *C 17.464 9.408
*N *2834:3 *C 17.464 9.548
*N *2834:4 *C 17.477 9.560
*N *2834:5 *C 20.794 9.560
*N *2834:6 *C 20.808 9.574
*N *2834:7 *C 20.808 12.131

*CAP
0 *386:Y 0.001
1 *408:D 0.001
2 *2834:2 0.007606985
3 *2834:3 0.008750516
4 *2834:4 0.1184119
5 *2834:5 0.1184119
6 *2834:6 0.1372214
7 *2834:7 0.1360779

*RES
0 *386:Y *2834:7 1
1 *2834:2 *408:D 1
2 *2834:3 *2834:2 0.2325
3 *2834:4 *2834:3 0.5
4 *2834:6 *2834:5 0.5
5 *2834:5 *2834:4 5.923214
6 *2834:7 *2834:6 4.566072

*END

*D_NET *2835 0.1586508 //LENGTH 1.855 LUMPCC 0 DR

*CONN
*I *385:Y O *L 0 *C 24.152 17.920
*I *399:D I *L 0.543569 *C 25.064 17.312
*N *2835:2 *C 25.064 17.312
*N *2835:3 *C 25.064 17.451
*N *2835:4 *C 25.050 17.464
*N *2835:5 *C 24.166 17.464
*N *2835:6 *C 24.152 17.477
*N *2835:7 *C 24.152 17.907

*CAP
0 *385:Y 0.001
1 *399:D 0.001
2 *2835:2 0.008044524
3 *2835:3 0.009188056
4 *2835:4 0.03683809
5 *2835:5 0.03683809
6 *2835:6 0.03344281
7 *2835:7 0.03229928

*RES
0 *385:Y *2835:7 1
1 *2835:2 *399:D 1
2 *2835:3 *2835:2 0.2325
3 *2835:4 *2835:3 0.5
4 *2835:6 *2835:5 0.5
5 *2835:5 *2835:4 1.580357
6 *2835:7 *2835:6 0.7660715

*END

*D_NET *2838 0.2217219 //LENGTH 2.919 LUMPCC 0 DR

*CONN
*I *382:Y O *L 0 *C 24.152 22.176
*I *407:D I *L 0.543569 *C 25.216 20.656
*N *2838:2 *C 25.216 20.669
*N *2838:3 *C 25.216 22.011
*N *2838:4 *C 25.203 22.024
*N *2838:5 *C 24.166 22.024
*N *2838:6 *C 24.152 22.024
*N *2838:7 *C 24.152 22.164

*CAP
0 *382:Y 0.001
1 *407:D 0.001
2 *2838:2 0.05131719
3 *2838:3 0.05246073
4 *2838:4 0.04207875
5 *2838:5 0.04207875
6 *2838:6 0.01646502
7 *2838:7 0.01532149

*RES
0 *382:Y *2838:7 1
1 *2838:2 *407:D 1
2 *2838:3 *2838:2 2.394643
3 *2838:4 *2838:3 0.5
4 *2838:6 *2838:5 0.5
5 *2838:5 *2838:4 1.851786
6 *2838:7 *2838:6 0.2325

*END

*D_NET *2840 0.7071496 //LENGTH 7.846 LUMPCC 0 DR

*CONN
*I *380:Y O *L 0 *C 24.304 15.488
*I *402:D I *L 0.543569 *C 26.736 10.624
*N *2840:2 *C 26.736 10.638
*N *2840:3 *C 26.736 11.675
*N *2840:4 *C 26.723 11.688
*N *2840:5 *C 25.989 11.688
*N *2840:6 *C 25.976 11.702
*N *2840:7 *C 25.976 14.107
*N *2840:8 *C 25.963 14.120
*N *2840:9 *C 24.318 14.120
*N *2840:10 *C 24.304 14.134
*N *2840:11 *C 24.304 15.475

*CAP
0 *380:Y 0.001
1 *402:D 0.001
2 *2840:2 0.0625177
3 *2840:3 0.06366123
4 *2840:4 0.03621597
5 *2840:5 0.03621597
6 *2840:6 0.1181584
7 *2840:7 0.1181584
8 *2840:8 0.06310269
9 *2840:9 0.06310269
10 *2840:10 0.07258008
11 *2840:11 0.07143655

*RES
0 *380:Y *2840:11 1
1 *2840:2 *402:D 1
2 *2840:3 *2840:2 1.851786
3 *2840:4 *2840:3 0.5
4 *2840:6 *2840:5 0.5
5 *2840:5 *2840:4 1.308929
6 *2840:7 *2840:6 4.294643
7 *2840:8 *2840:7 0.5
8 *2840:10 *2840:9 0.5
9 *2840:9 *2840:8 2.9375
10 *2840:11 *2840:10 2.394643

*END

*D_NET *2842 0.4586705 //LENGTH 6.154 LUMPCC 0 DR

*CONN
*I *378:Y O *L 0 *C 21.416 22.176
*I *406:D I *L 0.543569 *C 18.668 19.440
*N *2842:2 *C 18.541 19.440
*N *2842:3 *C 18.528 19.440
*N *2842:4 *C 18.528 19.579
*N *2842:5 *C 18.541 19.592
*N *2842:6 *C 21.402 19.592
*N *2842:7 *C 21.416 19.605
*N *2842:8 *C 21.416 22.163

*CAP
0 *378:Y 0.001
1 *406:D 0.01081407
2 *2842:2 0.009219941
3 *2842:3 0.01763985
4 *2842:4 0.01745495
5 *2842:5 0.101053
6 *2842:6 0.101053
7 *2842:7 0.1007896
8 *2842:8 0.09964608

*RES
0 *378:Y *2842:8 1
1 *2842:2 *406:D 0.2116667
2 *2842:3 *2842:2 1
3 *2842:4 *2842:3 0.2325
4 *2842:5 *2842:4 0.5
5 *2842:7 *2842:6 0.5
6 *2842:6 *2842:5 5.108929
7 *2842:8 *2842:7 4.566072

*END

*D_NET *2845 0.3952325 //LENGTH 4.875 LUMPCC 0 DR

*CONN
*I *496:Y O *L 0 *C 45.280 40.568
*I *411:D I *L 0.543562 *C 41.024 40.720
*N *2845:2 *C 45.280 40.386
*N *2845:3 *C 41.024 40.708
*N *2845:4 *C 41.024 40.568
*N *2845:5 *C 41.038 40.568
*N *2845:6 *C 45.267 40.568
*N *2845:7 *C 45.280 40.556

*CAP
0 *496:Y 0.001
1 *411:D 0.001
2 *2845:2 0.01425182
3 *2845:3 0.01182734
4 *2845:4 0.01297088
5 *2845:5 0.1723161
6 *2845:6 0.1723161
7 *2845:7 0.009550217

*RES
0 *496:Y *2845:7 1
1 *2845:3 *411:D 1
2 *2845:4 *2845:3 0.2325
3 *2845:5 *2845:4 0.5
4 *2845:7 *2845:6 0.5
5 *2845:7 *2845:2 0.2825
6 *2845:6 *2845:5 7.551786

*END

*D_NET *2849 0.07782 //LENGTH 0.591 LUMPCC 0 DR

*CONN
*I *489:Y O *L 0 *C 41.645 39.504
*I *416:D I *L 0.543562 *C 41.054 39.504

*CAP
0 *489:Y 0.03891
1 *416:D 0.03891

*RES
0 *489:Y *416:D 1.182

*END

*D_NET *2850 0.5517802 //LENGTH 6.719 LUMPCC 0 DR

*CONN
*I *165:Y O *L 0 *C 42.696 36.008
*I *417:D I *L 0.543562 *C 36.768 36.160
*N *2850:2 *C 36.768 36.160
*N *2850:3 *C 36.768 36.300
*N *2850:4 *C 36.782 36.312
*N *2850:5 *C 42.683 36.312
*N *2850:6 *C 42.696 36.299
*N *2850:7 *C 42.696 36.022

*CAP
0 *165:Y 0.001
1 *417:D 0.001
2 *2850:2 0.007234893
3 *2850:3 0.008378425
4 *2850:4 0.2535
5 *2850:5 0.2535
6 *2850:6 0.01415522
7 *2850:7 0.01301169

*RES
0 *165:Y *2850:7 1
1 *2850:2 *417:D 1
2 *2850:3 *2850:2 0.2325
3 *2850:4 *2850:3 0.5
4 *2850:6 *2850:5 0.5
5 *2850:5 *2850:4 10.5375
6 *2850:7 *2850:6 0.4946429

*END

*D_NET *2854 0.8120946 //LENGTH 8.498 LUMPCC 0 DR

*CONN
*I *427:Y O *L 0 *C 41.176 30.992
*I *428:A2 I *L 0.466516 *C 40.416 25.976
*I *443:A I *L 0.582888 *C 41.784 32.664
*N *2854:3 *C 41.784 32.651
*N *2854:4 *C 41.784 31.766
*N *2854:5 *C 41.771 31.752
*N *2854:6 *C 41.190 31.752
*N *2854:7 *C 41.176 31.739
*N *2854:8 *C 40.416 25.989
*N *2854:9 *C 40.416 30.080
*N *2854:10 *C 41.176 30.080
*N *2854:11 *C 41.176 30.992

*CAP
0 *427:Y 0.001
1 *428:A2 0.001
2 *443:A 0.001
3 *2854:3 0.05221519
4 *2854:4 0.05335872
5 *2854:5 0.02581474
6 *2854:6 0.02581474
7 *2854:7 0.03493617
8 *2854:8 0.2174676
9 *2854:9 0.2497517
10 *2854:10 0.0726523
11 *2854:11 0.07708339

*RES
0 *427:Y *2854:11 1
1 *2854:7 *2854:6 0.5
2 *2854:6 *2854:5 1.0375
3 *2854:4 *2854:3 1.580357
4 *2854:5 *2854:4 0.5
5 *2854:3 *443:A 1
6 *2854:11 *2854:10 1.628571
7 *2854:11 *2854:7 1.333036
8 *2854:8 *428:A2 1
9 *2854:9 *2854:8 7.304464
10 *2854:10 *2854:9 1.357143

*END

*D_NET *2859 1.502636 //LENGTH 16.353 LUMPCC 0 DR

*CONN
*I *432:Y O *L 0 *C 41.176 41.936
*I *467:A1 I *L 0.610599 *C 41.024 32.664
*I *433:A3 I *L 0.456834 *C 42.848 32.664
*I *470:A2 I *L 0.55521 *C 45.584 34.336
*N *2859:4 *C 45.584 34.335
*N *2859:5 *C 45.584 33.894
*N *2859:6 *C 45.571 33.880
*N *2859:7 *C 42.861 33.880
*N *2859:8 *C 42.848 33.867
*N *2859:9 *C 42.848 32.678
*N *2859:10 *C 42.835 32.664
*N *2859:11 *C 41.190 32.664
*N *2859:12 *C 41.175 32.664
*N *2859:13 *C 41.024 32.664
*N *2859:14 *C 41.024 34.640
*N *2859:15 *C 41.176 34.640
*N *2859:16 *C 41.176 41.922

*CAP
0 *432:Y 0.001
1 *467:A1 0.001
2 *433:A3 0.001
3 *470:A2 0.001
4 *2859:4 0.0190575
5 *2859:5 0.02020104
6 *2859:6 0.1124992
7 *2859:7 0.1124992
8 *2859:8 0.06269836
9 *2859:9 0.0597758
10 *2859:10 0.07696825
11 *2859:11 0.07696825
12 *2859:12 0.005513013
13 *2859:13 0.1289382
14 *2859:14 0.1322046
15 *2859:15 0.3506169
16 *2859:16 0.3406961

*RES
0 *432:Y *2859:16 1
1 *2859:8 *2859:7 0.5
2 *2859:7 *2859:6 4.8375
3 *2859:5 *2859:4 0.7883929
4 *2859:6 *2859:5 0.5
5 *2859:4 *470:A2 1
6 *2859:9 *433:A3 1
7 *2859:9 *2859:8 2.123214
8 *2859:16 *2859:15 13.00447
9 *2859:10 *2859:9 0.5
10 *2859:12 *2859:11 0.5
11 *2859:11 *2859:10 2.9375
12 *2859:13 *467:A1 1
13 *2859:13 *2859:12 0.2696429
14 *2859:14 *2859:13 3.528571
15 *2859:15 *2859:14 0.2714286

*END

*D_NET *2864 1.340671 //LENGTH 13.459 LUMPCC 0 DR

*CONN
*I *426:Y O *L 0 *C 41.176 29.168
*I *428:A1 I *L 0.549073 *C 40.264 25.672
*I *429:A I *L 0.582888 *C 43.000 30.840
*I *468:A3 I *L 0.532459 *C 44.216 30.232
*I *476:A2 I *L 0.570549 *C 45.736 28.560
*N *2864:5 *C 45.723 28.560
*N *2864:6 *C 45.584 28.560
*N *2864:7 *C 45.584 28.699
*N *2864:8 *C 45.571 28.712
*N *2864:9 *C 44.216 30.219
*N *2864:10 *C 44.216 28.726
*N *2864:11 *C 44.216 28.712
*N *2864:12 *C 43.000 30.827
*N *2864:13 *C 43.000 28.726
*N *2864:14 *C 43.000 28.712
*N *2864:15 *C 40.264 25.673
*N *2864:16 *C 40.264 28.699
*N *2864:17 *C 40.278 28.712
*N *2864:18 *C 41.176 28.712
*N *2864:19 *C 41.176 28.726
*N *2864:20 *C 41.176 29.155

*CAP
0 *426:Y 0.001
1 *428:A1 0.001
2 *429:A 0.001
3 *468:A3 0.001
4 *476:A2 0.001
5 *2864:5 0.004812255
6 *2864:6 0.01747884
7 *2864:7 0.007964981
8 *2864:8 0.05199879
9 *2864:9 0.1045833
10 *2864:10 0.1057268
11 *2864:11 0.0971379
12 *2864:12 0.1228837
13 *2864:13 0.1240273
14 *2864:14 0.1157421
15 *2864:15 0.1878533
16 *2864:16 0.1889968
17 *2864:17 0.04150675
18 *2864:18 0.1138888
19 *2864:19 0.02610633
20 *2864:20 0.02496279

*RES
0 *426:Y *2864:20 1
1 *2864:7 *2864:6 0.2473214
2 *2864:8 *2864:7 0.5
3 *2864:5 *476:A2 1
4 *2864:10 *2864:9 2.666071
5 *2864:11 *2864:10 0.5
6 *2864:11 *2864:8 2.41875
7 *2864:9 *468:A3 1
8 *2864:13 *2864:12 3.751786
9 *2864:14 *2864:13 0.5
10 *2864:14 *2864:11 2.171429
11 *2864:12 *429:A 1
12 *2864:19 *2864:18 0.5
13 *2864:18 *2864:17 1.604464
14 *2864:18 *2864:14 3.257143
15 *2864:20 *2864:19 0.7660714
16 *2864:16 *2864:15 5.402678
17 *2864:17 *2864:16 0.5
18 *2864:15 *428:A1 1
19 *2864:6 *2864:5 0.2473214

*END

*D_NET *2869 0.3305294 //LENGTH 4.302 LUMPCC 0 DR

*CONN
*I *469:Y O *L 0 *C 47.064 36.186
*I *480:A1 I *L 0.610599 *C 46.952 34.184
*I *470:A3 I *L 0.519105 *C 45.280 34.336
*N *2869:3 *C 45.280 34.324
*N *2869:4 *C 45.280 34.184
*N *2869:5 *C 45.294 34.184
*N *2869:6 *C 46.939 34.184
*N *2869:7 *C 46.952 34.198
*N *2869:8 *C 46.952 36.147
*N *2869:9 *C 46.965 36.160

*CAP
0 *469:Y 0.009155525
1 *480:A1 0.001
2 *470:A3 0.001
3 *2869:3 0.009329803
4 *2869:4 0.01047333
5 *2869:5 0.06829365
6 *2869:6 0.06829365
7 *2869:7 0.07615728
8 *2869:8 0.07926475
9 *2869:9 0.007561398

*RES
0 *469:Y *2869:9 0.1658334
1 *2869:9 *2869:8 1
2 *2869:8 *2869:7 3.480357
3 *2869:7 *480:A1 1
4 *2869:7 *2869:6 0.5
5 *2869:6 *2869:5 2.9375
6 *2869:4 *2869:3 0.2325
7 *2869:5 *2869:4 0.5
8 *2869:3 *470:A3 1

*END

*D_NET *2873 1.110179 //LENGTH 12.766 LUMPCC 0 DR

*CONN
*I *443:Y O *L 0 *C 41.480 32.816
*I *445:A1 I *L 0.601783 *C 43.745 34.361
*I *480:A2 I *L 0.55521 *C 47.104 34.336
*I *485:A3 I *L 0.518192 *C 46.040 33.272
*I *485:A1 I *L 0.520769 *C 46.496 32.512
*N *2873:5 *C 46.496 32.526
*N *2873:6 *C 46.496 33.259
*N *2873:7 *C 46.483 33.272
*N *2873:8 *C 46.040 33.090
*N *2873:9 *C 46.040 33.260
*N *2873:10 *C 46.040 33.272
*N *2873:11 *C 47.104 34.336
*N *2873:12 *C 47.104 34.476
*N *2873:13 *C 47.091 34.488
*N *2873:14 *C 43.471 34.336
*N *2873:15 *C 43.456 34.336
*N *2873:16 *C 43.456 34.476
*N *2873:17 *C 43.470 34.488
*N *2873:18 *C 44.824 34.488
*N *2873:19 *C 44.824 34.474
*N *2873:20 *C 44.824 33.285
*N *2873:21 *C 44.824 33.272
*N *2873:22 *C 41.494 33.272
*N *2873:23 *C 41.480 33.259
*N *2873:24 *C 41.480 32.830

*CAP
0 *443:Y 0.001
1 *445:A1 0.02027143
2 *480:A2 0.001
3 *485:A3 0.001
4 *485:A1 0.001
5 *2873:5 0.04494106
6 *2873:6 0.0460846
7 *2873:7 0.01665937
8 *2873:8 0.01751327
9 *2873:9 0.01281167
10 *2873:10 0.06318402
11 *2873:11 0.01194082
12 *2873:12 0.01308435
13 *2873:13 0.08106937
14 *2873:14 0.0186773
15 *2873:15 0.01206678
16 *2873:16 0.01188187
17 *2873:17 0.04647453
18 *2873:18 0.1293229
19 *2873:19 0.07208378
20 *2873:20 0.07208378
21 *2873:21 0.2052933
22 *2873:22 0.1587687
23 *2873:23 0.02655452
24 *2873:24 0.02541098

*RES
0 *443:Y *2873:24 1
1 *2873:6 *2873:5 1.308929
2 *2873:7 *2873:6 0.5
3 *2873:5 *485:A1 1
4 *2873:9 *485:A3 1
5 *2873:9 *2873:8 0.2825
6 *2873:10 *2873:9 0.5
7 *2873:10 *2873:7 0.7901787
8 *2873:12 *2873:11 0.2325
9 *2873:13 *2873:12 0.5
10 *2873:11 *480:A2 1
11 *2873:19 *2873:18 0.5
12 *2873:18 *2873:17 2.41875
13 *2873:18 *2873:13 4.047322
14 *2873:20 *2873:19 2.123214
15 *2873:21 *2873:20 0.5
16 *2873:21 *2873:10 2.171429
17 *2873:16 *2873:15 0.2325
18 *2873:17 *2873:16 0.5
19 *2873:14 *445:A1 0.5480001
20 *2873:15 *2873:14 1
21 *2873:23 *2873:22 0.5
22 *2873:22 *2873:21 5.947322
23 *2873:24 *2873:23 0.7660714

*END

*D_NET *2880 0.1600331 //LENGTH 1.980 LUMPCC 0 DR

*CONN
*I *492:Y O *L 0 *C 44.126 46.344
*I *493:A4 I *L 0.569168 *C 45.432 46.192
*N *2880:2 *C 44.368 46.162
*N *2880:3 *C 45.432 46.192
*N *2880:4 *C 45.432 46.332
*N *2880:5 *C 45.419 46.344
*N *2880:6 *C 44.382 46.344
*N *2880:7 *C 44.368 46.332
*N *2880:8 *C 44.353 46.344

*CAP
0 *492:Y 0.01850085
1 *493:A4 0.001
2 *2880:2 0.01103762
3 *2880:3 0.01486953
4 *2880:4 0.01601306
5 *2880:5 0.03702043
6 *2880:6 0.03702043
7 *2880:7 0.007664456
8 *2880:8 0.01690672

*RES
0 *492:Y *2880:8 0.4540001
1 *2880:3 *493:A4 1
2 *2880:4 *2880:3 0.2325
3 *2880:5 *2880:4 0.5
4 *2880:7 *2880:6 0.5
5 *2880:7 *2880:2 0.2825
6 *2880:6 *2880:5 1.851786
7 *2880:8 *2880:7 1

*END

*D_NET *2882 0.4193485 //LENGTH 4.544 LUMPCC 0 DR

*CONN
*I *494:Y O *L 0 *C 44.824 42.696
*I *496:A5 I *L 0.551519 *C 44.520 40.720
*I *495:A4 I *L 0.513828 *C 43.760 42.544
*N *2882:3 *C 43.760 42.558
*N *2882:4 *C 43.760 42.986
*N *2882:5 *C 43.774 43.000
*N *2882:6 *C 44.520 40.733
*N *2882:7 *C 44.520 42.986
*N *2882:8 *C 44.520 43.000
*N *2882:9 *C 44.811 43.000
*N *2882:10 *C 44.824 42.986
*N *2882:11 *C 44.824 42.710

*CAP
0 *494:Y 0.001
1 *496:A5 0.001
2 *495:A4 0.001
3 *2882:3 0.02895383
4 *2882:4 0.03009736
5 *2882:5 0.03051916
6 *2882:6 0.1116911
7 *2882:7 0.1128346
8 *2882:8 0.04479348
9 *2882:9 0.01249529
10 *2882:10 0.02305364
11 *2882:11 0.0219101

*RES
0 *494:Y *2882:11 1
1 *2882:10 *2882:9 0.5
2 *2882:9 *2882:8 0.5187501
3 *2882:11 *2882:10 0.4946429
4 *2882:7 *2882:6 4.023214
5 *2882:8 *2882:7 0.5
6 *2882:8 *2882:5 1.333036
7 *2882:6 *496:A5 1
8 *2882:4 *2882:3 0.7660714
9 *2882:5 *2882:4 0.5
10 *2882:3 *495:A4 1

*END

*D_NET *2886 1.382677 //LENGTH 14.377 LUMPCC 0 DR

*CONN
*I *414:QN O *L 0 *C 39.960 32.208
*I *425:A3 I *L 0.456834 *C 40.720 30.840
*I *427:A3 I *L 0.519105 *C 41.784 30.992
*I *474:A2 I *L 0.55521 *C 43.304 27.648
*I *430:A2 I *L 0.61189 *C 44.368 25.976
*I *476:A1 I *L 0.526361 *C 45.554 29.320
*N *2886:6 *C 45.280 29.138
*N *2886:7 *C 45.295 29.320
*N *2886:8 *C 45.280 29.308
*N *2886:9 *C 45.267 29.320
*N *2886:10 *C 44.368 25.989
*N *2886:11 *C 44.368 26.571
*N *2886:12 *C 44.355 26.584
*N *2886:13 *C 43.318 26.584
*N *2886:14 *C 43.304 26.598
*N *2886:15 *C 43.304 27.648
*N *2886:16 *C 43.304 29.306
*N *2886:17 *C 43.304 29.320
*N *2886:18 *C 41.797 29.320
*N *2886:19 *C 41.784 29.334
*N *2886:20 *C 41.784 30.992
*N *2886:21 *C 41.784 31.144
*N *2886:22 *C 41.633 31.144
*N *2886:23 *C 41.619 31.144
*N *2886:24 *C 40.720 30.854
*N *2886:25 *C 40.720 31.131
*N *2886:26 *C 40.720 31.144
*N *2886:27 *C 39.974 31.144
*N *2886:28 *C 39.960 31.158
*N *2886:29 *C 39.960 32.207

*CAP
0 *414:QN 0.001
1 *425:A3 0.001
2 *427:A3 0.001
3 *474:A2 0.001
4 *430:A2 0.001
5 *476:A1 0.02430792
6 *2886:6 0.01262572
7 *2886:7 0.0227138
8 *2886:8 0.00925256
9 *2886:9 0.07618995
10 *2886:10 0.04065333
11 *2886:11 0.04179686
12 *2886:12 0.04885849
13 *2886:13 0.04885849
14 *2886:14 0.06206301
15 *2886:15 0.1671922
16 *2886:16 0.1044937
17 *2886:17 0.1395376
18 *2886:18 0.06156863
19 *2886:19 0.1054281
20 *2886:20 0.1141976
21 *2886:21 0.01707681
22 *2886:22 0.00538482
23 *2886:23 0.03282198
24 *2886:24 0.01962896
25 *2886:25 0.02077249
26 *2886:26 0.06206258
27 *2886:27 0.02746156
28 *2886:28 0.05693652
29 *2886:29 0.05579298

*RES
0 *414:QN *2886:29 1
1 *2886:8 *2886:7 1
2 *2886:8 *2886:6 0.2825
3 *2886:9 *2886:8 0.5
4 *2886:7 *476:A1 0.5180001
5 *2886:16 *2886:15 2.961607
6 *2886:17 *2886:16 0.5
7 *2886:17 *2886:9 3.504464
8 *2886:15 *474:A2 1
9 *2886:15 *2886:14 1.875893
10 *2886:14 *2886:13 0.5
11 *2886:13 *2886:12 1.851786
12 *2886:11 *2886:10 1.0375
13 *2886:12 *2886:11 0.5
14 *2886:10 *430:A2 1
15 *2886:20 *427:A3 1
16 *2886:20 *2886:19 2.961607
17 *2886:19 *2886:18 0.5
18 *2886:18 *2886:17 2.690179
19 *2886:22 *2886:21 0.2696429
20 *2886:23 *2886:22 0.5
21 *2886:25 *2886:24 0.4946429
22 *2886:26 *2886:25 0.5
23 *2886:26 *2886:23 1.604464
24 *2886:24 *425:A3 1
25 *2886:28 *2886:27 0.5
26 *2886:27 *2886:26 1.333036
27 *2886:29 *2886:28 1.874107
28 *2886:21 *2886:20 0.2714286

*END

*D_NET *2891 0.7020839 //LENGTH 7.860 LUMPCC 0 DR

*CONN
*I *412:QN O *L 0 *C 40.720 42.240
*I *432:A4 I *L 0.565045 *C 41.814 42.721
*I *495:A5 I *L 0.551519 *C 43.304 42.848
*I *492:A3 I *L 0.539281 *C 43.304 45.736
*N *2891:4 *C 43.304 45.723
*N *2891:5 *C 43.304 42.861
*N *2891:6 *C 43.304 43.014
*N *2891:7 *C 43.291 43.000
*N *2891:8 *C 42.377 42.696
*N *2891:9 *C 42.392 42.710
*N *2891:10 *C 42.392 42.986
*N *2891:11 *C 42.392 43.000
*N *2891:12 *C 42.392 42.696
*N *2891:13 *C 40.733 42.696
*N *2891:14 *C 40.720 42.683
*N *2891:15 *C 40.720 42.254

*CAP
0 *412:QN 0.001
1 *432:A4 0.03569497
2 *495:A5 0.001
3 *492:A3 0.001
4 *2891:4 0.1333215
5 *2891:5 0.01206353
6 *2891:6 0.1494511
7 *2891:7 0.04123736
8 *2891:8 0.03410085
9 *2891:9 0.01733591
10 *2891:10 0.01715101
11 *2891:11 0.0522283
12 *2891:12 0.0882871
13 *2891:13 0.07551713
14 *2891:14 0.02191938
15 *2891:15 0.02077584

*RES
0 *412:QN *2891:15 1
1 *2891:4 *492:A3 1
2 *2891:5 *495:A5 1
3 *2891:6 *2891:5 0.255
4 *2891:6 *2891:4 4.837501
5 *2891:7 *2891:6 0.5
6 *2891:10 *2891:9 0.4946429
7 *2891:11 *2891:10 0.5
8 *2891:11 *2891:7 1.604464
9 *2891:8 *432:A4 1.126
10 *2891:9 *2891:8 1
11 *2891:14 *2891:13 0.5
12 *2891:13 *2891:12 2.961607
13 *2891:15 *2891:14 0.7660715
14 *2891:12 *2891:11 0.5428572

*END

*D_NET *2897 1.803389 //LENGTH 22.651 LUMPCC 0 DR

*CONN
*I *498:Q O *L 0 *C 32.816 39.048
*I *444:A1 I *L 0.666174 *C 41.632 37.680
*I *442:A3 I *L 0.584801 *C 44.064 37.680
*I *456:A1 I *L 0.549073 *C 46.800 39.048
*I *170:A3 I *L 0.539281 *C 45.432 39.048
*I *320:A2 I *L 0.516516 *C 46.192 35.248
*N *2897:6 *C 46.192 35.262
*N *2897:7 *C 46.192 37.819
*N *2897:8 *C 46.178 37.832
*N *2897:9 *C 45.432 39.035
*N *2897:10 *C 46.800 39.047
*N *2897:11 *C 46.800 38.758
*N *2897:12 *C 46.787 38.744
*N *2897:13 *C 45.446 38.744
*N *2897:14 *C 45.432 38.744
*N *2897:15 *C 45.432 37.846
*N *2897:16 *C 45.432 37.832
*N *2897:17 *C 44.064 37.680
*N *2897:18 *C 44.064 37.820
*N *2897:19 *C 44.064 37.832
*N *2897:20 *C 41.480 37.832
*N *2897:21 *C 41.632 37.694
*N *2897:22 *C 41.632 38.123
*N *2897:23 *C 41.619 38.136
*N *2897:24 *C 41.480 38.136
*N *2897:25 *C 33.894 38.136
*N *2897:26 *C 33.880 38.150
*N *2897:27 *C 33.880 39.339
*N *2897:28 *C 33.867 39.352
*N *2897:29 *C 32.830 39.352
*N *2897:30 *C 32.816 39.339
*N *2897:31 *C 32.816 39.062

*CAP
0 *498:Q 0.001
1 *444:A1 0.001
2 *442:A3 0.001
3 *456:A1 0.001
4 *170:A3 0.001
5 *320:A2 0.001
6 *2897:6 0.1384768
7 *2897:7 0.1396204
8 *2897:8 0.03432243
9 *2897:9 0.01485168
10 *2897:10 0.01503409
11 *2897:11 0.01617762
12 *2897:12 0.04885404
13 *2897:13 0.04885404
14 *2897:14 0.05728287
15 *2897:15 0.03950862
16 *2897:16 0.0933056
17 *2897:17 0.01115074
18 *2897:18 0.01229427
19 *2897:19 0.1531253
20 *2897:20 0.1061082
21 *2897:21 0.02965796
22 *2897:22 0.0308015
23 *2897:23 0.006379279
24 *2897:24 0.3063642
25 *2897:25 0.2862399
26 *2897:26 0.04174157
27 *2897:27 0.04174157
28 *2897:28 0.04278929
29 *2897:29 0.04278919
30 *2897:30 0.02053051
31 *2897:31 0.01938698

*RES
0 *498:Q *2897:31 1
1 *2897:7 *2897:6 4.566072
2 *2897:8 *2897:7 0.5
3 *2897:6 *320:A2 1
4 *2897:9 *170:A3 1
5 *2897:14 *2897:13 0.5
6 *2897:14 *2897:9 0.5187501
7 *2897:13 *2897:12 2.394643
8 *2897:11 *2897:10 0.5169643
9 *2897:12 *2897:11 0.5
10 *2897:10 *456:A1 1
11 *2897:15 *2897:14 1.604464
12 *2897:16 *2897:15 0.5
13 *2897:16 *2897:8 1.333036
14 *2897:18 *2897:17 0.2325
15 *2897:19 *2897:18 0.5
16 *2897:19 *2897:16 2.442857
17 *2897:17 *442:A3 1
18 *2897:22 *2897:21 0.7660714
19 *2897:23 *2897:22 0.5
20 *2897:21 *444:A1 1
21 *2897:25 *2897:24 13.54732
22 *2897:26 *2897:25 0.5
23 *2897:28 *2897:27 0.5
24 *2897:27 *2897:26 2.123214
25 *2897:30 *2897:29 0.5
26 *2897:29 *2897:28 1.851786
27 *2897:31 *2897:30 0.4946429
28 *2897:24 *2897:23 0.2473214
29 *2897:24 *2897:20 0.5428572
30 *2897:20 *2897:19 4.614285

*END

*D_NET *2901 0.8431581 //LENGTH 9.628 LUMPCC 0 DR

*CONN
*I *413:Q O *L 0 *C 40.720 45.736
*I *432:A2 I *L 0.578798 *C 41.480 42.736
*I *492:A2 I *L 0.515513 *C 42.848 45.280
*I *493:A1 I *L 0.501685 *C 45.736 46.040
*N *2901:4 *C 45.736 46.027
*N *2901:5 *C 45.736 45.446
*N *2901:6 *C 45.723 45.432
*N *2901:7 *C 42.848 45.280
*N *2901:8 *C 42.848 45.419
*N *2901:9 *C 42.848 45.432
*N *2901:10 *C 41.480 42.848
*N *2901:11 *C 41.617 42.848
*N *2901:12 *C 41.632 42.861
*N *2901:13 *C 41.632 45.419
*N *2901:14 *C 41.632 45.432
*N *2901:15 *C 40.733 45.432
*N *2901:16 *C 40.720 45.446
*N *2901:17 *C 40.720 45.723

*CAP
0 *413:Q 0.001
1 *432:A2 0.01062764
2 *492:A2 0.001
3 *493:A1 0.001
4 *2901:4 0.03088502
5 *2901:5 0.03202856
6 *2901:6 0.1031471
7 *2901:7 0.01298887
8 *2901:8 0.0141324
9 *2901:9 0.1535183
10 *2901:10 0.02432135
11 *2901:11 0.01209959
12 *2901:12 0.1496302
13 *2901:13 0.1494453
14 *2901:14 0.08612916
15 *2901:15 0.03575791
16 *2901:16 0.01329521
17 *2901:17 0.01215168

*RES
0 *413:Q *2901:17 1
1 *2901:5 *2901:4 1.0375
2 *2901:6 *2901:5 0.5
3 *2901:4 *493:A1 1
4 *2901:8 *2901:7 0.2325
5 *2901:9 *2901:8 0.5
6 *2901:9 *2901:6 5.133036
7 *2901:7 *492:A2 1
8 *2901:13 *2901:12 4.566072
9 *2901:14 *2901:13 0.5
10 *2901:14 *2901:9 2.171429
11 *2901:11 *2901:10 0.274
12 *2901:12 *2901:11 1
13 *2901:16 *2901:15 0.5
14 *2901:15 *2901:14 1.604464
15 *2901:17 *2901:16 0.4946429
16 *2901:10 *432:A2 0.304

*END

*D_NET *2905 0.7859952 //LENGTH 12.155 LUMPCC 0 DR

*CONN
*I *485:Y O *L 0 *C 45.280 32.208
*I *414:D I *L 0.543562 *C 36.160 32.816
*N *2905:2 *C 45.736 32.786
*N *2905:3 *C 36.160 32.803
*N *2905:4 *C 36.160 32.664
*N *2905:5 *C 36.174 32.664
*N *2905:6 *C 39.643 32.664
*N *2905:7 *C 39.656 32.678
*N *2905:8 *C 39.656 32.955
*N *2905:9 *C 39.669 32.968
*N *2905:10 *C 45.723 32.968
*N *2905:11 *C 45.736 32.956
*N *2905:12 *C 45.723 32.968
*N *2905:13 *C 45.294 32.968
*N *2905:14 *C 45.280 32.955
*N *2905:15 *C 45.280 32.221

*CAP
0 *485:Y 0.001
1 *414:D 0.001
2 *2905:2 0.009310614
3 *2905:3 0.01298173
4 *2905:4 0.01412526
5 *2905:5 0.1327274
6 *2905:6 0.1327275
7 *2905:7 0.01161633
8 *2905:8 0.01161648
9 *2905:9 0.1639667
10 *2905:10 0.1639667
11 *2905:11 0.005752895
12 *2905:12 0.02069196
13 *2905:13 0.02069186
14 *2905:14 0.04248167
15 *2905:15 0.04133813

*RES
0 *485:Y *2905:15 1
1 *2905:3 *414:D 1
2 *2905:4 *2905:3 0.2325
3 *2905:5 *2905:4 0.5
4 *2905:6 *2905:5 6.194643
5 *2905:7 *2905:6 0.5
6 *2905:8 *2905:7 0.4946429
7 *2905:9 *2905:8 0.5
8 *2905:11 *2905:10 0.5
9 *2905:11 *2905:2 0.2825
10 *2905:10 *2905:9 10.80893
11 *2905:12 *2905:11 0.5
12 *2905:14 *2905:13 0.5
13 *2905:13 *2905:12 0.7660714
14 *2905:15 *2905:14 1.308929

*END

*D_NET *2909 10.81091 //LENGTH 130.525 LUMPCC 0 DR

*CONN
*I *377:Y O *L 0 *C 7.584 6.064
*I *136:RSTB I *L 0.906543 *C 9.712 10.168
*I *234:RSTB I *L 1.062234 *C 9.864 13.512
*I *138:A I *L 1.418912 *C 10.472 15.944
*I *397:RSTB I *L 1.062234 *C 14.000 13.520
*I *401:RSTB I *L 1.062234 *C 14.272 10.168
*I *225:RSTB I *L 1.062234 *C 14.120 9.864
*I *374:RSTB I *L 1.062234 *C 18.832 6.520
*I *405:RSTB I *L 1.062234 *C 19.744 10.168
*I *409:RSTB I *L 1.062234 *C 19.744 13.512
*I *403:RSTB I *L 1.062234 *C 20.048 16.856
*I *406:RSTB I *L 1.062234 *C 20.200 19.896
*I *408:RSTB I *L 1.062234 *C 18.984 9.864
*I *402:RSTB I *L 1.062234 *C 25.216 10.168
*I *367:RSTB I *L 1.062234 *C 26.736 16.552
*I *399:RSTB I *L 1.062234 *C 26.616 16.864
*I *407:RSTB I *L 1.062234 *C 26.736 20.200
*I *398:RSTB I *L 1.062234 *C 25.672 13.208
*I *373:RSTB I *L 1.062234 *C 32.360 9.864
*I *372:RSTB I *L 1.062234 *C 33.880 10.168
*I *247:RSTB I *L 0.906543 *C 35.400 13.512
*I *246:RSTB I *L 0.906543 *C 36.312 16.856
*I *250:RSTB I *L 0.906543 *C 37.224 20.200
*I *243:RSTB I *L 0.906543 *C 37.224 23.240
*I *248:RSTB I *L 0.906543 *C 36.160 16.552
*I *245:RSTB I *L 0.906543 *C 40.264 13.512
*I *244:RSTB I *L 0.906543 *C 40.720 16.552
*I *365:RSTB I *L 1.062234 *C 27.800 9.864
*I *364:RSTB I *L 1.062234 *C 27.952 6.520
*I *375:RSTB I *L 1.062234 *C 23.392 6.520
*I *232:RSTB I *L 1.062234 *C 14.272 6.520
*I *404:RSTB I *L 1.062234 *C 13.968 19.896
*I *395:RSTB I *L 1.062234 *C 14.728 23.240
*I *396:RSTB I *L 1.062234 *C 14.272 20.200
*I *400:RSTB I *L 1.062234 *C 14.272 16.552
*I *231:RSTB I *L 1.062234 *C 10.016 16.856
*I *228:RSTB I *L 1.062234 *C 10.320 19.896
*I *226:RSTB I *L 1.062234 *C 11.080 23.544
*I *227:RSTB I *L 1.062234 *C 10.016 23.240
*N *2909:39 *C 10.016 23.227
*N *2909:40 *C 11.080 23.530
*N *2909:41 *C 11.080 22.646
*N *2909:42 *C 11.067 22.632
*N *2909:43 *C 10.030 22.632
*N *2909:44 *C 10.016 22.632
*N *2909:45 *C 10.320 19.714
*N *2909:46 *C 10.320 19.884
*N *2909:47 *C 10.306 19.896
*N *2909:48 *C 10.030 19.896
*N *2909:49 *C 10.016 19.896
*N *2909:50 *C 10.016 16.870
*N *2909:51 *C 9.864 16.856
*N *2909:52 *C 14.271 16.552
*N *2909:53 *C 14.272 20.213
*N *2909:54 *C 14.728 23.227
*N *2909:55 *C 14.728 20.504
*N *2909:56 *C 14.272 20.504
*N *2909:57 *C 13.968 20.504
*N *2909:58 *C 13.968 19.896
*N *2909:59 *C 14.120 19.896
*N *2909:60 *C 14.120 16.552
*N *2909:61 *C 23.392 6.338
*N *2909:62 *C 24.532 6.559
*N *2909:63 *C 23.696 6.338
*N *2909:64 *C 27.951 6.520
*N *2909:65 *C 40.720 16.538
*N *2909:66 *C 40.720 14.742
*N *2909:67 *C 40.707 14.728
*N *2909:68 *C 40.278 14.728
*N *2909:69 *C 40.264 14.715
*N *2909:70 *C 40.264 13.526
*N *2909:71 *C 40.251 13.512
*N *2909:72 *C 37.224 23.227
*N *2909:73 *C 37.224 20.213
*N *2909:74 *C 37.211 20.200
*N *2909:75 *C 36.326 20.200
*N *2909:76 *C 36.312 20.187
*N *2909:77 *C 36.312 16.870
*N *2909:78 *C 36.312 16.855
*N *2909:79 *C 36.312 16.552
*N *2909:80 *C 36.174 16.552
*N *2909:81 *C 36.160 16.538
*N *2909:82 *C 36.160 14.742
*N *2909:83 *C 36.147 14.728
*N *2909:84 *C 35.413 14.728
*N *2909:85 *C 35.400 14.715
*N *2909:86 *C 35.400 13.526
*N *2909:87 *C 35.400 13.512
*N *2909:88 *C 34.046 13.512
*N *2909:89 *C 34.032 13.498
*N *2909:90 *C 34.032 10.168
*N *2909:91 *C 33.881 10.168
*N *2909:92 *C 33.867 10.168
*N *2909:93 *C 32.664 10.168
*N *2909:94 *C 32.664 9.864
*N *2909:95 *C 32.360 9.682
*N *2909:96 *C 32.360 9.851
*N *2909:97 *C 32.360 9.864
*N *2909:98 *C 27.814 9.864
*N *2909:99 *C 27.800 9.851
*N *2909:100 *C 27.800 6.520
*N *2909:101 *C 27.787 6.520
*N *2909:102 *C 26.736 20.018
*N *2909:103 *C 26.736 20.188
*N *2909:104 *C 26.723 20.200
*N *2909:105 *C 26.446 20.200
*N *2909:106 *C 26.432 20.187
*N *2909:107 *C 26.432 17.464
*N *2909:108 *C 26.280 17.464
*N *2909:109 *C 26.732 16.856
*N *2909:110 *C 26.736 16.843
*N *2909:111 *C 26.736 16.566
*N *2909:112 *C 26.723 16.552
*N *2909:113 *C 26.294 16.552
*N *2909:114 *C 26.280 16.566
*N *2909:115 *C 26.128 16.552
*N *2909:116 *C 26.128 13.222
*N *2909:117 *C 26.114 13.208
*N *2909:118 *C 25.686 13.208
*N *2909:119 *C 25.672 13.195
*N *2909:120 *C 25.217 10.168
*N *2909:121 *C 25.672 10.168
*N *2909:122 *C 25.672 6.534
*N *2909:123 *C 25.672 6.520
*N *2909:124 *C 23.710 6.520
*N *2909:125 *C 23.696 6.508
*N *2909:126 *C 23.696 6.520
*N *2909:127 *C 23.696 6.542
*N *2909:128 *C 23.369 6.559
*N *2909:129 *C 23.392 6.520
*N *2909:130 *C 23.392 6.508
*N *2909:131 *C 23.379 6.520
*N *2909:132 *C 18.983 9.864
*N *2909:133 *C 20.200 19.883
*N *2909:134 *C 20.200 17.768
*N *2909:135 *C 20.048 17.768
*N *2909:136 *C 20.048 16.870
*N *2909:137 *C 19.896 16.856
*N *2909:138 *C 19.896 13.512
*N *2909:139 *C 19.744 13.512
*N *2909:140 *C 19.744 10.181
*N *2909:141 *C 19.730 10.168
*N *2909:142 *C 18.832 10.168
*N *2909:143 *C 18.832 9.865
*N *2909:144 *C 18.832 9.864
*N *2909:145 *C 18.832 6.534
*N *2909:146 *C 18.832 6.520
*N *2909:147 *C 14.286 6.520
*N *2909:148 *C 14.272 6.534
*N *2909:149 *C 14.121 9.864
*N *2909:150 *C 14.272 9.864
*N *2909:151 *C 14.272 10.155
*N *2909:152 *C 14.120 10.168
*N *2909:153 *C 14.116 13.512
*N *2909:154 *C 14.120 13.512
*N *2909:155 *C 14.120 15.944
*N *2909:156 *C 14.107 15.944
*N *2909:157 *C 10.472 15.762
*N *2909:158 *C 10.472 15.932
*N *2909:159 *C 10.472 15.944
*N *2909:160 *C 9.878 15.944
*N *2909:161 *C 9.864 15.944
*N *2909:162 *C 9.864 13.526
*N *2909:163 *C 9.712 13.512
*N *2909:164 *C 9.712 10.168
*N *2909:165 *C 9.712 6.230
*N *2909:166 *C 9.699 6.216
*N *2909:167 *C 7.598 6.216
*N *2909:168 *C 7.584 6.204
*N *2909:169 *C 7.584 6.064

*CAP
0 *377:Y 0.001
1 *136:RSTB 0.001
2 *234:RSTB 0.001
3 *138:A 0.001
4 *397:RSTB 0.004683448
5 *401:RSTB 0.001
6 *225:RSTB 0.001
7 *374:RSTB 0.001
8 *405:RSTB 0.001
9 *409:RSTB 0.001
10 *403:RSTB 0.001
11 *406:RSTB 0.001
12 *408:RSTB 0.001
13 *402:RSTB 0.001
14 *367:RSTB 0.001
15 *399:RSTB 0.005097843
16 *407:RSTB 0.001
17 *398:RSTB 0.001
18 *373:RSTB 0.001
19 *372:RSTB 0.001
20 *247:RSTB 0.001
21 *246:RSTB 0.001
22 *250:RSTB 0.001
23 *243:RSTB 0.001
24 *248:RSTB 0.001
25 *245:RSTB 0.001
26 *244:RSTB 0.001
27 *365:RSTB 0.001
28 *364:RSTB 0.001
29 *375:RSTB 0.001
30 *232:RSTB 0.001
31 *404:RSTB 0.001
32 *395:RSTB 0.001
33 *396:RSTB 0.001
34 *400:RSTB 0.001
35 *231:RSTB 0.001
36 *228:RSTB 0.001
37 *226:RSTB 0.001
38 *227:RSTB 0.001
39 *2909:39 0.02072617
40 *2909:40 0.03365213
41 *2909:41 0.03479566
42 *2909:42 0.04521323
43 *2909:43 0.04521323
44 *2909:44 0.1165572
45 *2909:45 0.01154478
46 *2909:46 0.00684318
47 *2909:47 0.01365545
48 *2909:48 0.01365545
49 *2909:49 0.2072494
50 *2909:50 0.1185514
51 *2909:51 0.04837238
52 *2909:52 0.00400447
53 *2909:53 0.01460876
54 *2909:54 0.1194051
55 *2909:55 0.1386944
56 *2909:56 0.0451433
57 *2909:57 0.04119364
58 *2909:58 0.03418384
59 *2909:59 0.1806423
60 *2909:60 0.2130376
61 *2909:61 0.01110856
62 *2909:62 0.001
63 *2909:63 0.01284257
64 *2909:64 0.003938082
65 *2909:65 0.07475872
66 *2909:66 0.07590225
67 *2909:67 0.02536286
68 *2909:68 0.02536286
69 *2909:69 0.04980768
70 *2909:70 0.04688511
71 *2909:71 0.1854559
72 *2909:72 0.107677
73 *2909:73 0.105898
74 *2909:74 0.03101199
75 *2909:75 0.03101199
76 *2909:76 0.1455381
77 *2909:77 0.1426155
78 *2909:78 0.008618972
79 *2909:79 0.01939741
80 *2909:80 0.007220367
81 *2909:81 0.1176302
82 *2909:82 0.1205528
83 *2909:83 0.03406033
84 *2909:84 0.03406033
85 *2909:85 0.04913876
86 *2909:86 0.04621619
87 *2909:87 0.2369526
88 *2909:88 0.04971767
89 *2909:89 0.1474465
90 *2909:90 0.1566768
91 *2909:91 0.002749652
92 *2909:92 0.05230238
93 *2909:93 0.06490321
94 *2909:94 0.02519421
95 *2909:95 0.01218865
96 *2909:96 0.007487051
97 *2909:97 0.2127177
98 *2909:98 0.1983453
99 *2909:99 0.1263814
100 *2909:100 0.1361646
101 *2909:101 0.07519368
102 *2909:102 0.01777612
103 *2909:103 0.01307452
104 *2909:104 0.0161468
105 *2909:105 0.0161468
106 *2909:106 0.1544978
107 *2909:107 0.163646
108 *2909:108 0.05560397
109 *2909:109 0.003503717
110 *2909:110 0.02401684
111 *2909:111 0.02090937
112 *2909:112 0.02387303
113 *2909:113 0.02387303
114 *2909:114 0.05389579
115 *2909:115 0.1634391
116 *2909:116 0.15422
117 *2909:117 0.02049428
118 *2909:118 0.02049428
119 *2909:119 0.1300008
120 *2909:120 0.01555184
121 *2909:121 0.3207081
122 *2909:122 0.1657523
123 *2909:123 0.1483116
124 *2909:124 0.07133893
125 *2909:125 0.009469406
126 *2909:126 0.001
127 *2909:127 0.002512012
128 *2909:128 0.001
129 *2909:129 0.001
130 *2909:130 0.00640696
131 *2909:131 0.1720318
132 *2909:132 0.004585566
133 *2909:133 0.09649183
134 *2909:134 0.1068044
135 *2909:135 0.06239804
136 *2909:136 0.05913262
137 *2909:137 0.161163
138 *2909:138 0.1616733
139 *2909:139 0.1595645
140 *2909:140 0.150228
141 *2909:141 0.03794964
142 *2909:142 0.05064138
143 *2909:143 0.009133666
144 *2909:144 0.1883526
145 *2909:145 0.1779219
146 *2909:146 0.3406868
147 *2909:147 0.166876
148 *2909:148 0.1368435
149 *2909:149 0.004283056
150 *2909:150 0.1632441
151 *2909:151 0.01877644
152 *2909:152 0.1932357
153 *2909:153 0.003089321
154 *2909:154 0.3135151
155 *2909:155 0.1599265
156 *2909:156 0.121044
157 *2909:157 0.01071729
158 *2909:158 0.006015691
159 *2909:159 0.1461855
160 *2909:160 0.02336255
161 *2909:161 0.1339903
162 *2909:162 0.09854291
163 *2909:163 0.1382106
164 *2909:164 0.2827502
165 *2909:165 0.1526186
166 *2909:166 0.09771425
167 *2909:167 0.09771425
168 *2909:168 0.007375836
169 *2909:169 0.006232304

*RES
0 *377:Y *2909:169 1
1 *2909:69 *2909:68 0.5
2 *2909:68 *2909:67 0.7660714
3 *2909:66 *2909:65 3.208929
4 *2909:67 *2909:66 0.5
5 *2909:65 *244:RSTB 1
6 *2909:70 *245:RSTB 1
7 *2909:70 *2909:69 2.123214
8 *2909:72 *243:RSTB 1
9 *2909:73 *250:RSTB 1
10 *2909:73 *2909:72 5.380358
11 *2909:74 *2909:73 0.5
12 *2909:76 *2909:75 0.5
13 *2909:75 *2909:74 1.580357
14 *2909:77 *246:RSTB 1
15 *2909:77 *2909:76 5.923215
16 *2909:78 *2909:77 0.5
17 *2909:81 *2909:80 0.5
18 *2909:81 *248:RSTB 1
19 *2909:80 *2909:79 0.2473214
20 *2909:71 *2909:70 0.5
21 *2909:82 *2909:81 3.208929
22 *2909:83 *2909:82 0.5
23 *2909:85 *2909:84 0.5
24 *2909:84 *2909:83 1.308929
25 *2909:86 *247:RSTB 1
26 *2909:86 *2909:85 2.123214
27 *2909:87 *2909:86 0.5
28 *2909:87 *2909:71 8.661608
29 *2909:89 *2909:88 0.5
30 *2909:88 *2909:87 2.41875
31 *2909:91 *372:RSTB 1
32 *2909:91 *2909:90 0.2696429
33 *2909:92 *2909:91 0.5
34 *2909:96 *373:RSTB 1
35 *2909:96 *2909:95 0.2825
36 *2909:97 *2909:96 0.5
37 *2909:97 *2909:94 0.5428572
38 *2909:64 *364:RSTB 1
39 *2909:99 *2909:98 0.5
40 *2909:99 *365:RSTB 1
41 *2909:98 *2909:97 8.118751
42 *2909:109 *399:RSTB 0.02727273
43 *2909:110 *2909:109 1
44 *2909:111 *367:RSTB 1
45 *2909:111 *2909:110 0.4946429
46 *2909:106 *2909:105 0.5
47 *2909:105 *2909:104 0.4946429
48 *2909:103 *407:RSTB 1
49 *2909:103 *2909:102 0.2825
50 *2909:104 *2909:103 0.5
51 *2909:112 *2909:111 0.5
52 *2909:114 *2909:113 0.5
53 *2909:114 *2909:108 1.604464
54 *2909:113 *2909:112 0.7660714
55 *2909:100 *2909:99 5.947322
56 *2909:100 *2909:64 0.2696429
57 *2909:101 *2909:100 0.5
58 *2909:116 *2909:115 5.947322
59 *2909:117 *2909:116 0.5
60 *2909:119 *2909:118 0.5
61 *2909:119 *398:RSTB 1
62 *2909:118 *2909:117 0.7660714
63 *2909:122 *2909:121 6.490179
64 *2909:123 *2909:122 0.5
65 *2909:123 *2909:101 3.775893
66 *2909:120 *402:RSTB 1
67 *2909:125 *2909:124 0.5
68 *2909:125 *2909:63 0.2825
69 *2909:124 *2909:123 3.504464
70 *2909:126 *2909:125 1
71 *2909:133 *406:RSTB 1
72 *2909:136 *403:RSTB 1
73 *2909:136 *2909:135 1.604464
74 *2909:139 *409:RSTB 1
75 *2909:139 *2909:138 0.2714286
76 *2909:140 *405:RSTB 1
77 *2909:140 *2909:139 5.947322
78 *2909:132 *408:RSTB 1
79 *2909:130 *2909:129 1
80 *2909:130 *2909:61 0.2825
81 *2909:131 *2909:130 0.5
82 *2909:141 *2909:140 0.5
83 *2909:144 *2909:143 0.5
84 *2909:144 *2909:132 0.2696429
85 *2909:143 *2909:142 0.5410715
86 *2909:145 *374:RSTB 1
87 *2909:145 *2909:144 5.947322
88 *2909:146 *2909:145 0.5
89 *2909:146 *2909:131 8.118751
90 *2909:54 *395:RSTB 1
91 *2909:53 *396:RSTB 1
92 *2909:151 *401:RSTB 1
93 *2909:151 *2909:150 0.5187501
94 *2909:148 *2909:147 0.5
95 *2909:148 *232:RSTB 1
96 *2909:147 *2909:146 8.118751
97 *2909:52 *400:RSTB 1
98 *2909:153 *397:RSTB 0.02727273
99 *2909:154 *2909:153 1
100 *2909:154 *2909:152 5.971429
101 *2909:149 *225:RSTB 1
102 *2909:58 *404:RSTB 1
103 *2909:58 *2909:57 1.085714
104 *2909:155 *2909:154 4.342857
105 *2909:155 *2909:60 1.085714
106 *2909:156 *2909:155 0.5
107 *2909:158 *138:A 1
108 *2909:158 *2909:157 0.2825
109 *2909:159 *2909:158 0.5
110 *2909:159 *2909:156 6.490179
111 *2909:39 *227:RSTB 1
112 *2909:44 *2909:43 0.5
113 *2909:44 *2909:39 1.061607
114 *2909:43 *2909:42 1.851786
115 *2909:41 *2909:40 1.580357
116 *2909:42 *2909:41 0.5
117 *2909:40 *226:RSTB 1
118 *2909:49 *2909:48 0.5
119 *2909:49 *2909:44 4.885715
120 *2909:48 *2909:47 0.4946429
121 *2909:46 *228:RSTB 1
122 *2909:46 *2909:45 0.2825
123 *2909:47 *2909:46 0.5
124 *2909:50 *231:RSTB 1
125 *2909:50 *2909:49 5.404465
126 *2909:161 *2909:160 0.5
127 *2909:161 *2909:51 1.628571
128 *2909:160 *2909:159 1.061607
129 *2909:162 *234:RSTB 1
130 *2909:162 *2909:161 4.31875
131 *2909:164 *136:RSTB 1
132 *2909:164 *2909:163 5.971429
133 *2909:165 *2909:164 7.033036
134 *2909:166 *2909:165 0.5
135 *2909:168 *2909:167 0.5
136 *2909:167 *2909:166 3.751786
137 *2909:169 *2909:168 0.2325
138 *2909:163 *2909:162 0.2714286
139 *2909:51 *2909:50 0.2714286
140 *2909:57 *2909:56 0.5428572
141 *2909:59 *2909:58 0.2714286
142 *2909:56 *2909:55 0.8142857
143 *2909:56 *2909:53 0.5187501
144 *2909:55 *2909:54 4.861607
145 *2909:150 *2909:149 0.2696429
146 *2909:150 *2909:148 5.947322
147 *2909:152 *2909:151 0.2714286
148 *2909:60 *2909:59 5.971429
149 *2909:60 *2909:52 0.2696429
150 *2909:138 *2909:137 5.971429
151 *2909:137 *2909:136 0.2714286
152 *2909:135 *2909:134 0.2714286
153 *2909:134 *2909:133 3.775893
154 *2909:121 *2909:120 0.8125
155 *2909:121 *2909:119 5.404465
156 *2909:115 *2909:114 0.2714286
157 *2909:108 *2909:107 0.2714286
158 *2909:107 *2909:106 4.861608
159 *2909:90 *2909:89 5.947322
160 *2909:142 *2909:141 1.604464
161 *2909:94 *2909:93 0.5428572
162 *2909:93 *2909:92 2.147322
163 *2909:79 *2909:78 0.5410715
164 *2909:127 *2909:126 0.02
165 *2909:127 *2909:62 1.672
166 *2909:128 *2909:127 0.6540001
167 *2909:129 *2909:128 0.02519231
168 *2909:129 *375:RSTB 0.001

*END

*D_NET *1 2.185658 //LENGTH 33.159 LUMPCC 0 DR

*CONN
*P *1 I *L 0 *C 16.096 0.258
*I *163:A I *L 1.418912 *C 16.400 7.432
*I *118:A I *L 1.418912 *C 15.488 24.152
*I *162:A I *L 0.561607 *C 17.768 29.320
*N *1:4 *C 17.768 29.138
*N *1:5 *C 17.768 29.308
*N *1:6 *C 17.755 29.320
*N *1:7 *C 16.262 29.320
*N *1:8 *C 16.248 29.306
*N *1:9 *C 15.488 23.970
*N *1:10 *C 15.488 24.140
*N *1:11 *C 15.502 24.152
*N *1:12 *C 16.235 24.152
*N *1:13 *C 16.248 24.152
*N *1:14 *C 16.400 7.419
*N *1:15 *C 16.400 7.142
*N *1:16 *C 16.387 7.128
*N *1:17 *C 16.248 7.128
*N *1:18 *C 16.248 7.128
*N *1:19 *C 16.248 0.454
*N *1:20 *C 16.236 0.440
*N *1:21 *C 16.096 0.440
*N *1:22 *C 16.096 0.427

*CAP
0 *1 0.009501237
1 *163:A 0.001
2 *118:A 0.001
3 *162:A 0.001
4 *1:4 0.01337171
5 *1:5 0.008670115
6 *1:6 0.05671299
7 *1:7 0.0567131
8 *1:8 0.1752028
9 *1:9 0.01162126
10 *1:10 0.006919656
11 *1:11 0.05131558
12 *1:12 0.05131568
13 *1:13 0.7227041
14 *1:14 0.01229651
15 *1:15 0.01344004
16 *1:16 0.009146695
17 *1:17 0.009146797
18 *1:18 0.7502872
19 *1:19 0.2027859
20 *1:20 0.00689201
21 *1:21 0.006891909
22 *1:22 0.007722203

*RES
0 *1 *1:22 0.3008929
1 *1:7 *1:6 2.666071
2 *1:8 *1:7 0.5
3 *1:5 *162:A 1
4 *1:5 *1:4 0.2825
5 *1:6 *1:5 0.5
6 *1:17 *1:16 0.2325
7 *1:18 *1:17 0.5
8 *1:18 *1:13 30.4
9 *1:15 *1:14 0.4946429
10 *1:16 *1:15 0.5
11 *1:14 *163:A 1
12 *1:20 *1:19 0.5
13 *1:19 *1:18 11.91875
14 *1:22 *1:21 0.5
15 *1:21 *1:20 0.2325
16 *1:12 *1:11 1.308929
17 *1:13 *1:12 0.5
18 *1:13 *1:8 9.204465
19 *1:10 *118:A 1
20 *1:10 *1:9 0.2825
21 *1:11 *1:10 0.5

*END

*D_NET *5 1.85626 //LENGTH 20.581 LUMPCC 0 DR

*CONN
*P *5 I *L 0 *C 24.456 0.258
*I *390:A2 I *L 0.501039 *C 23.491 14.424
*I *466:A1 I *L 0.521202 *C 23.835 19.288
*N *5:3 *C 23.709 19.288
*N *5:4 *C 23.696 19.274
*N *5:5 *C 23.544 14.424
*N *5:6 *C 23.545 14.424
*N *5:7 *C 23.696 14.438
*N *5:8 *C 23.710 14.424
*N *5:9 *C 24.443 14.424
*N *5:10 *C 24.456 14.411

*CAP
0 *5 0.565075
1 *390:A2 0.006688309
2 *466:A1 0.01008301
3 *5:3 0.008488883
4 *5:4 0.3052659
5 *5:5 0.005094183
6 *5:6 0.005817092
7 *5:7 0.3124922
8 *5:8 0.03697989
9 *5:9 0.03697989
10 *5:10 0.5632959

*RES
0 *5 *5:10 25.27232
1 *5:3 *466:A1 0.2116667
2 *5:4 *5:3 1
3 *5:7 *5:6 0.2696429
4 *5:7 *5:4 8.637501
5 *5:8 *5:7 0.5
6 *5:10 *5:9 0.5
7 *5:9 *5:8 1.308929
8 *5:5 *390:A2 0.09166668
9 *5:6 *5:5 1

*END

*D_NET *9 1.952314 //LENGTH 27.561 LUMPCC 0 DR

*CONN
*P *9 I *L 0 *C 0.258 18.376
*I *312:S0 I *L 1.210569 *C 12.904 32.681
*N *9:2 *C 12.904 32.482
*N *9:3 *C 12.904 32.664
*N *9:4 *C 12.904 32.651
*N *9:5 *C 12.891 32.664
*N *9:6 *C 0.606 32.664
*N *9:7 *C 0.592 32.651
*N *9:8 *C 0.592 18.390
*N *9:9 *C 0.579 18.376

*CAP
0 *9 0.01141423
1 *312:S0 0.01042128
2 *9:2 0.01135671
3 *9:3 0.00882715
4 *9:4 0.007983551
5 *9:5 0.4252921
6 *9:6 0.4252921
7 *9:7 0.521046
8 *9:8 0.521046
9 *9:9 0.009635199

*RES
0 *9 *9:9 0.5723215
1 *9:3 *312:S0 0.09166668
2 *9:4 *9:3 1
3 *9:4 *9:2 0.2825
4 *9:5 *9:4 0.5
5 *9:7 *9:6 0.5
6 *9:6 *9:5 21.9375
7 *9:8 *9:7 25.46607
8 *9:9 *9:8 0.5

*END

*D_NET *12 0.3585697 //LENGTH 6.123 LUMPCC 0 DR

*CONN
*I *133:Y O *L 0 *C 5.152 29.472
*P *12 O *L 0.05 *C 0.258 30.536
*N *12:2 *C 5.139 30.536
*N *12:3 *C 5.152 30.523
*N *12:4 *C 5.152 29.486

*CAP
0 *133:Y 0.001
1 *12 0.1377854
2 *12:2 0.1360064
3 *12:3 0.04246074
4 *12:4 0.04131721

*RES
0 *133:Y *12:4 1
1 *12:4 *12:3 1.851786
2 *12:3 *12:2 0.5
3 *12:2 *12 8.715179

*END

*D_NET *15 2.076033 //LENGTH 32.886 LUMPCC 0 DR

*CONN
*I *117:Y O *L 0 *C 30.232 12.752
*P *15 O *L 0.05 *C 10.472 0.258
*N *15:2 *C 30.050 12.600
*N *15:3 *C 10.472 1.034
*N *15:4 *C 10.486 1.048
*N *15:5 *C 30.219 1.048
*N *15:6 *C 30.232 1.062
*N *15:7 *C 30.232 12.587
*N *15:8 *C 30.220 12.600
*N *15:9 *C 30.232 12.600
*N *15:10 *C 30.232 12.740

*CAP
0 *117:Y 0.001
1 *15 0.02710637
2 *15:2 0.01186816
3 *15:3 0.02532734
4 *15:4 0.5906712
5 *15:5 0.5906714
6 *15:6 0.3953707
7 *15:7 0.3953707
8 *15:8 0.008310194
9 *15:9 0.01574026
10 *15:10 0.01459673

*RES
0 *117:Y *15:10 1
1 *15:10 *15:9 0.2325
2 *15:9 *15:8 0.5
3 *15:8 *15:7 0.5
4 *15:8 *15:2 0.2825
5 *15:7 *15:6 20.58036
6 *15:5 *15:4 35.2375
7 *15:6 *15:5 0.5
8 *15:3 *15 1.386607
9 *15:4 *15:3 0.5

*END

*D_NET *19 0.4664341 //LENGTH 7.145 LUMPCC 0 DR

*CONN
*I *130:Y O *L 0 *C 31.904 6.064
*P *19 O *L 0.05 *C 30.840 0.258
*N *19:2 *C 30.840 4.987
*N *19:3 *C 30.854 5.000
*N *19:4 *C 31.891 5.000
*N *19:5 *C 31.904 5.014
*N *19:6 *C 31.904 6.051

*CAP
0 *130:Y 0.001
1 *19 0.1515103
2 *19:2 0.1497312
3 *19:3 0.04000266
4 *19:4 0.04000266
5 *19:5 0.04266539
6 *19:6 0.04152185

*RES
0 *130:Y *19:6 1
1 *19:6 *19:5 1.851786
2 *19:5 *19:4 0.5
3 *19:4 *19:3 1.851786
4 *19:2 *19 8.44375
5 *19:3 *19:2 0.5

*END

*D_NET *23 0.453191 //LENGTH 6.190 LUMPCC 0 DR

*CONN
*I *114:Y O *L 0 *C 39.230 6.054
*P *23 O *L 0.05 *C 39.504 0.258
*N *23:2 *C 39.504 6.051
*N *23:3 *C 39.489 6.064

*CAP
0 *114:Y 0.01845776
1 *23 0.2097319
2 *23:2 0.2081378
3 *23:3 0.01686363

*RES
0 *114:Y *23:3 0.5180001
1 *23:3 *23:2 1
2 *23:2 *23 10.34375

*END

*D_NET *25 0.7486938 //LENGTH 11.401 LUMPCC 0 DR

*CONN
*I *113:Y O *L 0 *C 43.912 6.216
*P *25 O *L 0.05 *C 49.080 0.258
*N *25:2 *C 49.080 5.595
*N *25:3 *C 49.067 5.608
*N *25:4 *C 43.925 5.608
*N *25:5 *C 43.912 5.622
*N *25:6 *C 43.912 6.203

*CAP
0 *113:Y 0.001
1 *25 0.1641778
2 *25:2 0.1623988
3 *25:3 0.1771076
4 *25:4 0.1771076
5 *25:5 0.03402272
6 *25:6 0.03287919

*RES
0 *113:Y *25:6 1
1 *25:6 *25:5 1.0375
2 *25:5 *25:4 0.5
3 *25:4 *25:3 9.180358
4 *25:2 *25 9.529465
5 *25:3 *25:2 0.5

*END

*D_NET *28 0.3020817 //LENGTH 5.515 LUMPCC 0 DR

*CONN
*I *125:Y O *L 0 *C 47.560 7.280
*P *28 O *L 0.05 *C 52.454 7.736
*N *28:2 *C 47.574 7.736
*N *28:3 *C 47.560 7.723
*N *28:4 *C 47.560 7.294

*CAP
0 *125:Y 0.001
1 *28 0.1344031
2 *28:2 0.1326241
3 *28:3 0.01759907
4 *28:4 0.01645553

*RES
0 *125:Y *28:4 1
1 *28:4 *28:3 0.7660714
2 *28:3 *28:2 0.5
3 *28:2 *28 8.715178

*END

*D_NET *31 3.765649 //LENGTH 72.359 LUMPCC 0 DR

*CONN
*I *111:Y O *L 0 *C 13.816 42.848
*P *31 O *L 0.05 *C 52.454 9.864
*N *31:2 *C 13.634 41.784
*N *31:3 *C 51.221 9.864
*N *31:4 *C 51.208 9.878
*N *31:5 *C 51.208 40.251
*N *31:6 *C 51.195 40.264
*N *31:7 *C 13.830 40.264
*N *31:8 *C 13.816 40.278
*N *31:9 *C 13.816 41.771
*N *31:10 *C 13.804 41.784
*N *31:11 *C 13.816 41.797
*N *31:12 *C 13.816 42.835

*CAP
0 *111:Y 0.001
1 *31 0.03573161
2 *31:2 0.01310026
3 *31:3 0.03395268
4 *31:4 0.7615038
5 *31:5 0.761504
6 *31:6 0.9829596
7 *31:7 0.9829596
8 *31:8 0.04896158
9 *31:9 0.04896143
10 *31:10 0.009542292
11 *31:11 0.04330781
12 *31:12 0.04216428

*RES
0 *111:Y *31:12 1
1 *31:12 *31:11 1.851786
2 *31:11 *31:10 0.5
3 *31:10 *31:9 0.5
4 *31:10 *31:2 0.2825
5 *31:9 *31:8 2.666071
6 *31:8 *31:7 0.5
7 *31:7 *31:6 66.7232
8 *31:5 *31:4 54.23749
9 *31:6 *31:5 0.5
10 *31:3 *31 2.200893
11 *31:4 *31:3 0.5

*END

*D_NET *37 0.486478 //LENGTH 7.753 LUMPCC 0 DR

*CONN
*I *120:Y O *L 0 *C 44.520 6.064
*P *37 O *L 0.05 *C 46.192 0.258
*N *37:2 *C 46.192 4.987
*N *37:3 *C 46.178 5.000
*N *37:4 *C 44.534 5.000
*N *37:5 *C 44.520 5.014
*N *37:6 *C 44.520 6.051

*CAP
0 *120:Y 0.001
1 *37 0.1481384
2 *37:2 0.1463594
3 *37:3 0.05323116
4 *37:4 0.05323116
5 *37:5 0.04283073
6 *37:6 0.0416872

*RES
0 *120:Y *37:6 1
1 *37:6 *37:5 1.851786
2 *37:5 *37:4 0.5
3 *37:4 *37:3 2.9375
4 *37:2 *37 8.44375
5 *37:3 *37:2 0.5

*END

*D_NET *40 2.588423 //LENGTH 35.749 LUMPCC 0 DR

*CONN
*I *52:Y O *L 0 *C 24.456 26.280
*P *40 O *L 0.05 *C 32.968 0.258
*N *40:2 *C 32.968 0.440
*N *40:3 *C 32.816 0.440
*N *40:4 *C 32.816 4.378
*N *40:5 *C 32.803 4.392
*N *40:6 *C 24.166 4.392
*N *40:7 *C 24.152 4.405
*N *40:8 *C 24.152 25.659
*N *40:9 *C 24.166 25.672
*N *40:10 *C 24.443 25.672
*N *40:11 *C 24.456 25.686
*N *40:12 *C 24.456 26.267

*CAP
0 *52:Y 0.001
1 *40 0.01133574
2 *40:2 0.017399
3 *40:3 0.1920796
4 *40:4 0.1842373
5 *40:5 0.273312
6 *40:6 0.2733121
7 *40:7 0.7628854
8 *40:8 0.7628854
9 *40:9 0.01425902
10 *40:10 0.01425892
11 *40:11 0.0413009
12 *40:12 0.04015737

*RES
0 *52:Y *40:12 1
1 *40:12 *40:11 1.0375
2 *40:11 *40:10 0.5
3 *40:10 *40:9 0.4946429
4 *40:9 *40:8 0.5
5 *40:8 *40:7 37.95178
6 *40:6 *40:5 15.42322
7 *40:7 *40:6 0.5
8 *40:4 *40:3 7.033036
9 *40:5 *40:4 0.5
10 *40:3 *40:2 0.2714286
11 *40:2 *40 0.325

*END

*D_NET *2555 5.896441 //LENGTH 58.593 LUMPCC 0 DR

*CONN
*I *424:Y O *L 0 *C 39.200 29.472
*I *502:A I *L 0.561607 *C 24.760 22.632
*I *354:A1 I *L 0.501685 *C 24.152 27.496
*I *355:A1 I *L 0.501685 *C 20.200 32.664
*I *351:A1 I *L 0.501685 *C 20.200 34.184
*I *353:A1 I *L 0.501685 *C 19.440 27.496
*I *350:A1 I *L 0.501685 *C 19.866 36.008
*I *349:A1 I *L 0.501685 *C 19.136 40.872
*I *348:A1 I *L 0.501685 *C 14.272 42.696
*I *352:A1 I *L 0.501685 *C 20.619 30.840
*I *423:A I *L 0.582888 *C 33.880 25.976
*N *2555:11 *C 33.879 25.976
*N *2555:12 *C 33.728 25.976
*N *2555:13 *C 14.272 42.683
*N *2555:14 *C 14.272 39.974
*N *2555:15 *C 14.286 39.960
*N *2555:16 *C 19.136 40.858
*N *2555:17 *C 19.136 39.974
*N *2555:18 *C 19.136 39.960
*N *2555:19 *C 19.427 39.960
*N *2555:20 *C 19.440 39.947
*N *2555:21 *C 19.455 36.008
*N *2555:22 *C 19.440 36.008
*N *2555:23 *C 19.440 27.510
*N *2555:24 *C 19.440 34.184
*N *2555:25 *C 19.454 34.184
*N *2555:26 *C 20.187 34.184
*N *2555:27 *C 20.200 34.171
*N *2555:28 *C 20.200 32.664
*N *2555:29 *C 20.200 31.448
*N *2555:30 *C 20.352 31.448
*N *2555:31 *C 20.352 30.854
*N *2555:32 *C 20.367 30.840
*N *2555:33 *C 20.618 30.840
*N *2555:34 *C 20.656 30.827
*N *2555:35 *C 20.656 30.384
*N *2555:36 *C 20.808 30.384
*N *2555:37 *C 20.808 30.245
*N *2555:38 *C 20.822 30.232
*N *2555:39 *C 24.139 30.232
*N *2555:40 *C 24.152 30.219
*N *2555:41 *C 24.152 27.510
*N *2555:42 *C 24.166 27.496
*N *2555:43 *C 24.747 27.496
*N *2555:44 *C 24.760 27.483
*N *2555:45 *C 24.760 22.646
*N *2555:46 *C 24.760 26.280
*N *2555:47 *C 24.774 26.280
*N *2555:48 *C 33.715 26.280
*N *2555:49 *C 33.728 26.280
*N *2555:50 *C 33.728 27.495
*N *2555:51 *C 33.729 27.496
*N *2555:52 *C 39.187 27.496
*N *2555:53 *C 39.200 27.510
*N *2555:54 *C 39.200 29.459

*CAP
0 *424:Y 0.001
1 *502:A 0.001
2 *354:A1 0.001
3 *355:A1 0.001
4 *351:A1 0.001
5 *353:A1 0.001
6 *350:A1 0.02846544
7 *349:A1 0.001
8 *348:A1 0.001
9 *352:A1 0.001
10 *423:A 0.001
11 *2555:11 0.004737946
12 *2555:12 0.02334485
13 *2555:13 0.1320086
14 *2555:14 0.1331521
15 *2555:15 0.1828557
16 *2555:16 0.06921952
17 *2555:17 0.07036305
18 *2555:18 0.1963056
19 *2555:19 0.0116708
20 *2555:20 0.2814093
21 *2555:21 0.02687132
22 *2555:22 0.4025658
23 *2555:23 0.39096
24 *2555:24 0.5130752
25 *2555:25 0.03758837
26 *2555:26 0.03758837
27 *2555:27 0.07008562
28 *2555:28 0.134222
29 *2555:29 0.06981067
30 *2555:30 0.04878373
31 *2555:31 0.03973631
32 *2555:32 0.01692552
33 *2555:33 0.01559708
34 *2555:34 0.02535309
35 *2555:35 0.03646058
36 *2555:36 0.02440093
37 *2555:37 0.01443697
38 *2555:38 0.1754844
39 *2555:39 0.1754844
40 *2555:40 0.20768
41 *2555:41 0.2047575
42 *2555:42 0.02665725
43 *2555:43 0.02665725
44 *2555:44 0.07090645
45 *2555:45 0.151254
46 *2555:46 0.2250831
47 *2555:47 0.379371
48 *2555:48 0.379371
49 *2555:49 0.07456101
50 *2555:50 0.05887668
51 *2555:51 0.241904
52 *2555:52 0.241904
53 *2555:53 0.1048188
54 *2555:54 0.1036753

*RES
0 *424:Y *2555:54 1
1 *2555:11 *423:A 1
2 *2555:50 *2555:49 2.169643
3 *2555:51 *2555:50 0.5
4 *2555:53 *2555:52 0.5
5 *2555:52 *2555:51 9.745537
6 *2555:54 *2555:53 3.480358
7 *2555:49 *2555:48 0.5
8 *2555:49 *2555:12 0.5428572
9 *2555:48 *2555:47 15.96607
10 *2555:46 *2555:45 6.490179
11 *2555:46 *2555:44 2.147322
12 *2555:47 *2555:46 0.5
13 *2555:45 *502:A 1
14 *2555:41 *354:A1 1
15 *2555:41 *2555:40 4.8375
16 *2555:44 *2555:43 0.5
17 *2555:43 *2555:42 1.0375
18 *2555:42 *2555:41 0.5
19 *2555:40 *2555:39 0.5
20 *2555:39 *2555:38 5.923215
21 *2555:37 *2555:36 0.2473214
22 *2555:38 *2555:37 0.5
23 *2555:34 *2555:33 1
24 *2555:32 *2555:31 1
25 *2555:31 *2555:30 1.061607
26 *2555:27 *351:A1 1
27 *2555:27 *2555:26 0.5
28 *2555:28 *355:A1 1
29 *2555:28 *2555:27 2.690179
30 *2555:21 *350:A1 0.8220001
31 *2555:22 *2555:21 1
32 *2555:22 *2555:20 7.033036
33 *2555:26 *2555:25 1.308929
34 *2555:24 *2555:23 11.91875
35 *2555:24 *2555:22 3.257143
36 *2555:25 *2555:24 0.5
37 *2555:23 *353:A1 1
38 *2555:20 *2555:19 0.5
39 *2555:19 *2555:18 0.5187501
40 *2555:17 *2555:16 1.580357
41 *2555:18 *2555:17 0.5
42 *2555:18 *2555:15 8.661608
43 *2555:16 *349:A1 1
44 *2555:14 *2555:13 4.837501
45 *2555:15 *2555:14 0.5
46 *2555:13 *348:A1 1
47 *2555:29 *2555:28 2.171428
48 *2555:30 *2555:29 0.2714286
49 *2555:35 *2555:34 0.7901785
50 *2555:36 *2555:35 0.2714286
51 *2555:12 *2555:11 0.2696429
52 *2555:33 *2555:32 0.5024
53 *2555:33 *352:A1 0.001

*END

*D_NET *2558 1.304358 //LENGTH 14.281 LUMPCC 0 DR

*CONN
*I *428:Y O *L 0 *C 40.112 25.824
*I *171:A I *L 0.561607 *C 39.504 25.976
*I *119:A I *L 0.582888 *C 38.288 25.976
*I *168:A I *L 0.561607 *C 34.488 25.976
*I *45:A1 I *L 0.581208 *C 31.601 27.496
*I *167:A I *L 0.561607 *C 32.816 27.496
*N *2558:6 *C 32.816 27.483
*N *2558:7 *C 31.662 27.496
*N *2558:8 *C 31.662 27.496
*N *2558:9 *C 31.600 27.206
*N *2558:10 *C 31.614 27.192
*N *2558:11 *C 32.803 27.192
*N *2558:12 *C 32.816 27.192
*N *2558:13 *C 32.816 25.382
*N *2558:14 *C 32.830 25.368
*N *2558:15 *C 34.323 25.368
*N *2558:16 *C 34.336 25.382
*N *2558:17 *C 34.336 25.976
*N *2558:18 *C 34.488 25.989
*N *2558:19 *C 34.488 26.267
*N *2558:20 *C 34.502 26.280
*N *2558:21 *C 38.288 25.989
*N *2558:22 *C 38.288 26.267
*N *2558:23 *C 38.288 26.280
*N *2558:24 *C 39.504 25.989
*N *2558:25 *C 39.504 26.267
*N *2558:26 *C 39.504 26.280
*N *2558:27 *C 40.099 26.280
*N *2558:28 *C 40.112 26.267
*N *2558:29 *C 40.112 25.838

*CAP
0 *428:Y 0.001
1 *171:A 0.001
2 *119:A 0.001
3 *168:A 0.001
4 *45:A1 0.01852368
5 *167:A 0.001
6 *2558:6 0.01615174
7 *2558:7 0.0137413
8 *2558:8 0.02473342
9 *2558:9 0.01571337
10 *2558:10 0.06705385
11 *2558:11 0.06705385
12 *2558:12 0.1198913
13 *2558:13 0.100817
14 *2558:14 0.06138026
15 *2558:15 0.06138026
16 *2558:16 0.02847395
17 *2558:17 0.0379135
18 *2558:18 0.02199477
19 *2558:19 0.01547779
20 *2558:20 0.1726673
21 *2558:21 0.01391076
22 *2558:22 0.0150543
23 *2558:23 0.2274388
24 *2558:24 0.01440214
25 *2558:25 0.01554567
26 *2558:26 0.08253928
27 *2558:27 0.02776773
28 *2558:28 0.03043754
29 *2558:29 0.02929401

*RES
0 *428:Y *2558:29 1
1 *2558:28 *2558:27 0.5
2 *2558:27 *2558:26 1.061607
3 *2558:29 *2558:28 0.7660715
4 *2558:25 *2558:24 0.4946429
5 *2558:26 *2558:25 0.5
6 *2558:26 *2558:23 2.171428
7 *2558:24 *171:A 1
8 *2558:22 *2558:21 0.4946429
9 *2558:23 *2558:22 0.5
10 *2558:23 *2558:20 6.761607
11 *2558:21 *119:A 1
12 *2558:19 *2558:18 0.4946429
13 *2558:20 *2558:19 0.5
14 *2558:18 *168:A 1
15 *2558:18 *2558:17 0.2714286
16 *2558:6 *167:A 1
17 *2558:16 *2558:15 0.5
18 *2558:15 *2558:14 2.666071
19 *2558:13 *2558:12 3.233036
20 *2558:14 *2558:13 0.5
21 *2558:12 *2558:11 0.5
22 *2558:12 *2558:6 0.5187501
23 *2558:11 *2558:10 2.123214
24 *2558:9 *2558:8 0.5187501
25 *2558:10 *2558:9 0.5
26 *2558:7 *45:A1 0.1916667
27 *2558:8 *2558:7 0.5
28 *2558:17 *2558:16 1.061607

*END

*D_NET *2565 0.8482876 //LENGTH 8.538 LUMPCC 0 DR

*CONN
*I *75:Y O *L 0 *C 34.032 7.280
*I *77:A1 I *L 0.494827 *C 37.984 9.256
*I *81:A2 I *L 0.503427 *C 37.984 11.536
*N *2565:3 *C 37.984 11.523
*N *2565:4 *C 37.984 9.256
*N *2565:5 *C 37.984 8.357
*N *2565:6 *C 37.971 8.344
*N *2565:7 *C 34.046 8.344
*N *2565:8 *C 34.032 8.331
*N *2565:9 *C 34.032 7.294

*CAP
0 *75:Y 0.001
1 *77:A1 0.001
2 *81:A2 0.001
3 *2565:3 0.1437523
4 *2565:4 0.1923684
5 *2565:5 0.04683708
6 *2565:6 0.181201
7 *2565:7 0.181201
8 *2565:8 0.05053572
9 *2565:9 0.04939219

*RES
0 *75:Y *2565:9 1
1 *2565:3 *81:A2 1
2 *2565:4 *77:A1 1
3 *2565:4 *2565:3 4.047322
4 *2565:5 *2565:4 1.604464
5 *2565:6 *2565:5 0.5
6 *2565:8 *2565:7 0.5
7 *2565:7 *2565:6 7.008929
8 *2565:9 *2565:8 1.851786

*END

*D_NET *2570 10.54616 //LENGTH 137.381 LUMPCC 0 DR

*CONN
*I *118:Y O *L 0 *C 17.312 24.000
*I *366:CLK I *L 0.694632 *C 29.168 24.912
*I *370:CLK I *L 0.694632 *C 29.365 25.216
*I *248:CLK I *L 0.695415 *C 34.944 15.184
*I *244:CLK I *L 0.695415 *C 39.504 15.184
*I *245:CLK I *L 0.695415 *C 41.480 14.880
*I *247:CLK I *L 0.695415 *C 34.184 14.880
*I *246:CLK I *L 0.695415 *C 35.096 18.224
*I *372:CLK I *L 0.694632 *C 32.664 11.536
*I *373:CLK I *L 0.694632 *C 31.144 8.496
*I *410:CLK I *L 0.695415 *C 38.440 28.256
*I *415:CLK I *L 0.695415 *C 38.440 28.560
*I *414:CLK I *L 0.695415 *C 36.464 31.904
*I *418:CLK I *L 0.695415 *C 36.768 34.944
*I *417:CLK I *L 0.695415 *C 37.032 35.248
*I *249:CLK I *L 0.695415 *C 38.440 24.912
*I *243:CLK I *L 0.695415 *C 38.440 21.872
*I *250:CLK I *L 0.695415 *C 38.440 21.568
*I *239:CLK I *L 0.695415 *C 27.496 28.560
*I *238:CLK I *L 0.695415 *C 27.496 31.600
*I *340:CLK I *L 0.694632 *C 23.696 38.288
*I *240:CLK I *L 0.695415 *C 24.152 38.592
*I *339:CLK I *L 0.694632 *C 28.256 38.288
*I *241:CLK I *L 0.695415 *C 31.904 38.592
*I *237:CLK I *L 0.695415 *C 32.816 38.288
*I *498:CLK I *L 0.694632 *C 36.464 38.592
*I *412:CLK I *L 0.695415 *C 37.224 41.936
*I *413:CLK I *L 0.695415 *C 37.336 45.280
*I *497:CLK I *L 0.694632 *C 36.312 44.976
*I *411:CLK I *L 0.695415 *C 40.720 41.632
*I *416:CLK I *L 0.695415 *C 40.720 38.592
*N *2570:31 *C 40.720 38.580
*N *2570:32 *C 40.720 38.440
*N *2570:33 *C 40.708 38.440
*N *2570:34 *C 40.720 41.620
*N *2570:35 *C 40.720 41.480
*N *2570:36 *C 40.708 41.480
*N *2570:37 *C 40.568 41.480
*N *2570:38 *C 40.568 41.467
*N *2570:39 *C 40.568 38.454
*N *2570:40 *C 40.581 38.440
*N *2570:41 *C 36.130 44.824
*N *2570:42 *C 36.312 44.964
*N *2570:43 *C 36.312 44.824
*N *2570:44 *C 36.300 44.824
*N *2570:45 *C 36.312 44.811
*N *2570:46 *C 37.042 45.432
*N *2570:47 *C 37.236 45.280
*N *2570:48 *C 37.224 45.280
*N *2570:49 *C 37.224 45.419
*N *2570:50 *C 37.212 45.432
*N *2570:51 *C 37.224 45.419
*N *2570:52 *C 37.042 41.784
*N *2570:53 *C 37.224 41.924
*N *2570:54 *C 37.224 41.784
*N *2570:55 *C 37.212 41.784
*N *2570:56 *C 37.224 41.797
*N *2570:57 *C 37.224 43.304
*N *2570:58 *C 37.211 43.304
*N *2570:59 *C 36.326 43.304
*N *2570:60 *C 36.312 43.304
*N *2570:61 *C 36.312 38.440
*N *2570:62 *C 36.615 38.440
*N *2570:63 *C 36.630 38.440
*N *2570:64 *C 36.464 38.580
*N *2570:65 *C 36.464 38.440
*N *2570:66 *C 36.477 38.440
*N *2570:67 *C 32.816 38.288
*N *2570:68 *C 32.816 38.428
*N *2570:69 *C 32.816 38.440
*N *2570:70 *C 31.904 38.580
*N *2570:71 *C 31.904 38.440
*N *2570:72 *C 31.918 38.440
*N *2570:73 *C 32.360 38.440
*N *2570:74 *C 32.360 38.136
*N *2570:75 *C 28.256 38.276
*N *2570:76 *C 28.256 38.136
*N *2570:77 *C 28.256 38.136
*N *2570:78 *C 24.152 38.580
*N *2570:79 *C 24.152 38.440
*N *2570:80 *C 24.152 38.439
*N *2570:81 *C 23.696 38.276
*N *2570:82 *C 23.696 38.136
*N *2570:83 *C 23.710 38.136
*N *2570:84 *C 24.152 38.136
*N *2570:85 *C 24.760 38.136
*N *2570:86 *C 24.760 38.123
*N *2570:87 *C 27.314 31.448
*N *2570:88 *C 27.496 31.588
*N *2570:89 *C 27.496 31.448
*N *2570:90 *C 27.484 31.448
*N *2570:91 *C 27.496 31.434
*N *2570:92 *C 27.314 28.712
*N *2570:93 *C 27.496 28.560
*N *2570:94 *C 27.496 28.700
*N *2570:95 *C 27.484 28.712
*N *2570:96 *C 27.496 28.726
*N *2570:97 *C 27.496 29.624
*N *2570:98 *C 27.483 29.624
*N *2570:99 *C 24.774 29.624
*N *2570:100 *C 24.760 29.624
*N *2570:101 *C 38.258 21.416
*N *2570:102 *C 38.440 21.556
*N *2570:103 *C 38.440 21.416
*N *2570:104 *C 38.428 21.416
*N *2570:105 *C 38.440 21.430
*N *2570:106 *C 38.258 21.872
*N *2570:107 *C 38.440 22.054
*N *2570:108 *C 38.440 21.885
*N *2570:109 *C 38.428 21.872
*N *2570:110 *C 38.440 21.872
*N *2570:111 *C 38.440 24.747
*N *2570:112 *C 38.440 24.899
*N *2570:113 *C 38.440 24.760
*N *2570:114 *C 38.427 24.760
*N *2570:115 *C 36.933 35.248
*N *2570:116 *C 36.920 35.236
*N *2570:117 *C 36.920 35.096
*N *2570:118 *C 36.920 35.095
*N *2570:119 *C 36.920 34.792
*N *2570:120 *C 36.768 34.931
*N *2570:121 *C 36.768 34.792
*N *2570:122 *C 36.782 34.792
*N *2570:123 *C 36.629 34.792
*N *2570:124 *C 36.616 34.779
*N *2570:125 *C 36.464 31.892
*N *2570:126 *C 36.464 31.752
*N *2570:127 *C 36.464 31.752
*N *2570:128 *C 36.604 31.752
*N *2570:129 *C 36.616 31.752
*N *2570:130 *C 38.440 28.547
*N *2570:131 *C 38.440 28.270
*N *2570:132 *C 38.440 28.117
*N *2570:133 *C 38.427 28.104
*N *2570:134 *C 36.630 28.104
*N *2570:135 *C 36.616 28.104
*N *2570:136 *C 36.616 24.774
*N *2570:137 *C 36.616 24.760
*N *2570:138 *C 30.962 8.648
*N *2570:139 *C 31.144 8.496
*N *2570:140 *C 31.144 8.636
*N *2570:141 *C 31.132 8.648
*N *2570:142 *C 31.144 8.662
*N *2570:143 *C 31.144 11.384
*N *2570:144 *C 32.664 11.524
*N *2570:145 *C 32.664 11.384
*N *2570:146 *C 32.651 11.384
*N *2570:147 *C 31.462 11.384
*N *2570:148 *C 31.448 11.398
*N *2570:149 *C 35.096 18.224
*N *2570:150 *C 35.096 18.364
*N *2570:151 *C 35.083 18.376
*N *2570:152 *C 34.198 18.376
*N *2570:153 *C 34.184 18.363
*N *2570:154 *C 34.002 14.728
*N *2570:155 *C 34.184 14.868
*N *2570:156 *C 34.184 14.728
*N *2570:157 *C 34.172 14.728
*N *2570:158 *C 34.184 14.742
*N *2570:159 *C 41.298 14.728
*N *2570:160 *C 41.480 14.868
*N *2570:161 *C 41.480 14.728
*N *2570:162 *C 41.468 14.728
*N *2570:163 *C 41.480 14.742
*N *2570:164 *C 41.480 15.323
*N *2570:165 *C 41.467 15.336
*N *2570:166 *C 39.504 15.184
*N *2570:167 *C 39.504 15.324
*N *2570:168 *C 39.504 15.336
*N *2570:169 *C 34.944 15.184
*N *2570:170 *C 34.944 15.324
*N *2570:171 *C 34.944 15.336
*N *2570:172 *C 34.198 15.336
*N *2570:173 *C 34.184 15.336
*N *2570:174 *C 34.184 17.464
*N *2570:175 *C 34.171 17.464
*N *2570:176 *C 31.462 17.464
*N *2570:177 *C 31.448 17.464
*N *2570:178 *C 31.448 24.747
*N *2570:179 *C 31.448 24.760
*N *2570:180 *C 29.138 25.064
*N *2570:181 *C 29.320 25.216
*N *2570:182 *C 29.320 25.204
*N *2570:183 *C 29.320 25.064
*N *2570:184 *C 29.308 25.064
*N *2570:185 *C 29.320 25.050
*N *2570:186 *C 29.320 24.760
*N *2570:187 *C 29.169 24.760
*N *2570:188 *C 29.168 24.899
*N *2570:189 *C 29.168 24.760
*N *2570:190 *C 29.168 24.760
*N *2570:191 *C 24.774 24.760
*N *2570:192 *C 24.760 24.760
*N *2570:193 *C 24.760 24.166
*N *2570:194 *C 24.747 24.152
*N *2570:195 *C 17.326 24.152
*N *2570:196 *C 17.312 24.140
*N *2570:197 *C 17.312 24.000

*CAP
0 *118:Y 0.001
1 *366:CLK 0.001
2 *370:CLK 0.008732164
3 *248:CLK 0.001
4 *244:CLK 0.001
5 *245:CLK 0.001
6 *247:CLK 0.001
7 *246:CLK 0.001
8 *372:CLK 0.001
9 *373:CLK 0.001
10 *410:CLK 0.001
11 *415:CLK 0.001
12 *414:CLK 0.001
13 *418:CLK 0.001
14 *417:CLK 0.01488391
15 *249:CLK 0.001
16 *243:CLK 0.001
17 *250:CLK 0.001
18 *239:CLK 0.001
19 *238:CLK 0.001
20 *340:CLK 0.001
21 *240:CLK 0.001
22 *339:CLK 0.001
23 *241:CLK 0.001
24 *237:CLK 0.001
25 *498:CLK 0.001
26 *412:CLK 0.001
27 *413:CLK 0.0134619
28 *497:CLK 0.001
29 *411:CLK 0.001
30 *416:CLK 0.001
31 *2570:31 0.008112258
32 *2570:32 0.009255789
33 *2570:33 0.01007734
34 *2570:34 0.007778886
35 *2570:35 0.008922418
36 *2570:36 0.009419111
37 *2570:37 0.009419213
38 *2570:38 0.1037172
39 *2570:39 0.1037172
40 *2570:40 0.189496
41 *2570:41 0.0169181
42 *2570:42 0.008156748
43 *2570:43 0.00930028
44 *2570:44 0.01336014
45 *2570:45 0.0493298
46 *2570:46 0.01115746
47 *2570:47 0.01186777
48 *2570:48 0.009534787
49 *2570:49 0.00934988
50 *2570:50 0.007599488
51 *2570:51 0.07036003
52 *2570:52 0.01371707
53 *2570:53 0.007315349
54 *2570:54 0.00845888
55 *2570:55 0.01015911
56 *2570:56 0.05022529
57 *2570:57 0.1223643
58 *2570:58 0.04071004
59 *2570:59 0.04071004
60 *2570:60 0.2186992
61 *2570:61 0.1804816
62 *2570:62 0.009333276
63 *2570:63 0.1886559
64 *2570:64 0.007999234
65 *2570:65 0.009142766
66 *2570:66 0.1665624
67 *2570:67 0.0119458
68 *2570:68 0.01308933
69 *2570:69 0.1736383
70 *2570:70 0.007291514
71 *2570:71 0.008435046
72 *2570:72 0.01920353
73 *2570:73 0.05088838
74 *2570:74 0.1513591
75 *2570:75 0.00744576
76 *2570:76 0.008589292
77 *2570:77 0.2656832
78 *2570:78 0.01420366
79 *2570:79 0.0153472
80 *2570:80 0.009795136
81 *2570:81 0.009089646
82 *2570:82 0.01023318
83 *2570:83 0.01781226
84 *2570:84 0.05539614
85 *2570:85 0.1503685
86 *2570:86 0.2873024
87 *2570:87 0.01284042
88 *2570:88 0.007783642
89 *2570:89 0.008927173
90 *2570:90 0.009282457
91 *2570:91 0.06448413
92 *2570:92 0.01136207
93 *2570:93 0.008123995
94 *2570:94 0.009267527
95 *2570:95 0.007804101
96 *2570:96 0.03335965
97 *2570:97 0.09962272
98 *2570:98 0.1181197
99 *2570:99 0.1181197
100 *2570:100 0.4530275
101 *2570:101 0.01156596
102 *2570:102 0.01155832
103 *2570:103 0.01270185
104 *2570:104 0.008007991
105 *2570:105 0.01615849
106 *2570:106 0.01507782
107 *2570:107 0.01554919
108 *2570:108 0.01084759
109 *2570:109 0.01151985
110 *2570:110 0.1153652
111 *2570:111 0.09742782
112 *2570:112 0.01141778
113 *2570:113 0.01256131
114 *2570:114 0.08087406
115 *2570:115 0.01328979
116 *2570:116 0.009790921
117 *2570:117 0.009606013
118 *2570:118 0.009184209
119 *2570:119 0.01903112
120 *2570:120 0.008339408
121 *2570:121 0.00948294
122 *2570:122 0.01573799
123 *2570:123 0.007670214
124 *2570:124 0.09542289
125 *2570:125 0.007273383
126 *2570:126 0.008416914
127 *2570:127 0.007229016
128 *2570:128 0.007229117
129 *2570:129 0.2082045
130 *2570:130 0.01299224
131 *2570:131 0.02316612
132 *2570:132 0.008394847
133 *2570:133 0.08484509
134 *2570:134 0.08484519
135 *2570:135 0.2351104
136 *2570:136 0.1223288
137 *2570:137 0.2855898
138 *2570:138 0.01147014
139 *2570:139 0.01161615
140 *2570:140 0.01275968
141 *2570:141 0.007912169
142 *2570:142 0.106582
143 *2570:143 0.1210953
144 *2570:144 0.01163351
145 *2570:145 0.01277704
146 *2570:146 0.05537234
147 *2570:147 0.05537245
148 *2570:148 0.232654
149 *2570:149 0.007742868
150 *2570:150 0.008886399
151 *2570:151 0.04276543
152 *2570:152 0.04276553
153 *2570:153 0.02973075
154 *2570:154 0.01194289
155 *2570:155 0.007866595
156 *2570:156 0.009010127
157 *2570:157 0.008384919
158 *2570:158 0.01875193
159 *2570:159 0.01371904
160 *2570:160 0.008240052
161 *2570:161 0.009383583
162 *2570:162 0.01016108
163 *2570:163 0.02399797
164 *2570:164 0.02399797
165 *2570:165 0.08720019
166 *2570:166 0.01219375
167 *2570:167 0.01333729
168 *2570:168 0.2885814
169 *2570:169 0.01168465
170 *2570:170 0.01282819
171 *2570:171 0.2323691
172 *2570:172 0.03098788
173 *2570:173 0.0844925
174 *2570:174 0.09547131
175 *2570:175 0.1059972
176 *2570:176 0.1059972
177 *2570:177 0.483975
178 *2570:178 0.2622764
179 *2570:179 0.2832787
180 *2570:180 0.01299291
181 *2570:181 0.007138037
182 *2570:182 0.01200206
183 *2570:183 0.01181715
184 *2570:184 0.009434939
185 *2570:185 0.01157132
186 *2570:186 0.02068203
187 *2570:187 0.005552836
188 *2570:188 0.01355677
189 *2570:189 0.01470031
190 *2570:190 0.2413423
191 *2570:191 0.1610004
192 *2570:192 0.1875388
193 *2570:193 0.02181371
194 *2570:194 0.4886284
195 *2570:195 0.4886283
196 *2570:196 0.01106275
197 *2570:197 0.009919219

*RES
0 *118:Y *2570:197 1
1 *2570:32 *2570:31 0.2325
2 *2570:33 *2570:32 0.5
3 *2570:31 *416:CLK 1
4 *2570:40 *2570:39 0.5
5 *2570:40 *2570:33 0.2116667
6 *2570:39 *2570:38 5.380358
7 *2570:37 *2570:36 0.2325
8 *2570:38 *2570:37 0.5
9 *2570:35 *2570:34 0.2325
10 *2570:36 *2570:35 0.5
11 *2570:34 *411:CLK 1
12 *2570:165 *2570:164 0.5
13 *2570:164 *2570:163 1.0375
14 *2570:162 *2570:161 0.5
15 *2570:162 *2570:159 0.2825
16 *2570:163 *2570:162 0.5
17 *2570:161 *2570:160 0.2325
18 *2570:160 *245:CLK 1
19 *2570:167 *2570:166 0.2325
20 *2570:168 *2570:167 0.5
21 *2570:168 *2570:165 3.504464
22 *2570:166 *244:CLK 1
23 *2570:130 *415:CLK 1
24 *2570:131 *410:CLK 1
25 *2570:131 *2570:130 0.4946429
26 *2570:113 *2570:112 0.2325
27 *2570:114 *2570:113 0.5
28 *2570:114 *2570:111 0.5
29 *2570:112 *249:CLK 1
30 *2570:111 *2570:110 5.133036
31 *2570:109 *2570:108 0.5
32 *2570:109 *2570:106 0.2825
33 *2570:110 *2570:109 0.5
34 *2570:110 *2570:105 0.7901786
35 *2570:108 *243:CLK 1
36 *2570:108 *2570:107 0.2825
37 *2570:104 *2570:103 0.5
38 *2570:104 *2570:101 0.2825
39 *2570:105 *2570:104 0.5
40 *2570:103 *2570:102 0.2325
41 *2570:102 *250:CLK 1
42 *2570:50 *2570:49 0.5
43 *2570:50 *2570:46 0.2825
44 *2570:51 *2570:50 0.5
45 *2570:49 *2570:48 0.2325
46 *2570:47 *413:CLK 0.1658334
47 *2570:48 *2570:47 1
48 *2570:55 *2570:54 0.5
49 *2570:55 *2570:52 0.2825
50 *2570:56 *2570:55 0.5
51 *2570:54 *2570:53 0.2325
52 *2570:53 *412:CLK 1
53 *2570:117 *2570:116 0.2325
54 *2570:118 *2570:117 0.5
55 *2570:115 *417:CLK 0.1658334
56 *2570:116 *2570:115 1
57 *2570:121 *2570:120 0.2325
58 *2570:122 *2570:121 0.5
59 *2570:122 *2570:119 0.2473214
60 *2570:120 *418:CLK 1
61 *2570:123 *2570:122 0.255
62 *2570:124 *2570:123 0.5
63 *2570:132 *2570:131 0.255
64 *2570:133 *2570:132 0.5
65 *2570:134 *2570:133 3.208929
66 *2570:135 *2570:134 0.5
67 *2570:135 *2570:129 6.514286
68 *2570:137 *2570:136 0.5
69 *2570:137 *2570:114 3.233036
70 *2570:136 *2570:135 5.947322
71 *2570:65 *2570:64 0.2325
72 *2570:66 *2570:65 0.5
73 *2570:66 *2570:63 0.255
74 *2570:64 *498:CLK 1
75 *2570:128 *2570:127 0.2325
76 *2570:129 *2570:128 0.5
77 *2570:129 *2570:124 5.404465
78 *2570:126 *2570:125 0.2325
79 *2570:127 *2570:126 0.5
80 *2570:125 *414:CLK 1
81 *2570:63 *2570:62 0.5
82 *2570:63 *2570:40 7.055357
83 *2570:62 *2570:61 0.5410715
84 *2570:58 *2570:57 0.5
85 *2570:57 *2570:56 2.690179
86 *2570:57 *2570:51 3.775893
87 *2570:59 *2570:58 1.580357
88 *2570:60 *2570:59 0.5
89 *2570:60 *2570:45 2.690179
90 *2570:44 *2570:43 0.5
91 *2570:44 *2570:41 0.2825
92 *2570:45 *2570:44 0.5
93 *2570:43 *2570:42 0.2325
94 *2570:42 *497:CLK 1
95 *2570:170 *2570:169 0.2325
96 *2570:171 *2570:170 0.5
97 *2570:171 *2570:168 8.142858
98 *2570:169 *248:CLK 1
99 *2570:152 *2570:151 1.580357
100 *2570:153 *2570:152 0.5
101 *2570:150 *2570:149 0.2325
102 *2570:151 *2570:150 0.5
103 *2570:149 *246:CLK 1
104 *2570:172 *2570:171 1.333036
105 *2570:173 *2570:172 0.5
106 *2570:173 *2570:158 1.061607
107 *2570:157 *2570:156 0.5
108 *2570:157 *2570:154 0.2825
109 *2570:158 *2570:157 0.5
110 *2570:156 *2570:155 0.2325
111 *2570:155 *247:CLK 1
112 *2570:68 *2570:67 0.2325
113 *2570:69 *2570:68 0.5
114 *2570:69 *2570:66 6.536608
115 *2570:67 *237:CLK 1
116 *2570:71 *2570:70 0.2325
117 *2570:72 *2570:71 0.5
118 *2570:70 *241:CLK 1
119 *2570:179 *2570:178 0.5
120 *2570:179 *2570:137 9.228572
121 *2570:178 *2570:177 13.00447
122 *2570:175 *2570:174 0.5
123 *2570:174 *2570:173 3.8
124 *2570:174 *2570:153 1.604464
125 *2570:176 *2570:175 4.837501
126 *2570:177 *2570:176 0.5
127 *2570:177 *2570:148 10.83304
128 *2570:147 *2570:146 2.123214
129 *2570:148 *2570:147 0.5
130 *2570:148 *2570:143 0.5428572
131 *2570:145 *2570:144 0.2325
132 *2570:146 *2570:145 0.5
133 *2570:144 *372:CLK 1
134 *2570:141 *2570:140 0.5
135 *2570:141 *2570:138 0.2825
136 *2570:142 *2570:141 0.5
137 *2570:140 *2570:139 0.2325
138 *2570:139 *373:CLK 1
139 *2570:189 *2570:188 0.2325
140 *2570:190 *2570:189 0.5
141 *2570:190 *2570:187 0.5
142 *2570:190 *2570:179 4.071428
143 *2570:188 *366:CLK 1
144 *2570:187 *2570:186 0.2696429
145 *2570:184 *2570:183 0.5
146 *2570:184 *2570:180 0.2825
147 *2570:185 *2570:184 0.5
148 *2570:183 *2570:182 0.2325
149 *2570:181 *370:CLK 0.09166668
150 *2570:182 *2570:181 1
151 *2570:76 *2570:75 0.2325
152 *2570:77 *2570:76 0.5
153 *2570:77 *2570:74 7.328572
154 *2570:75 *339:CLK 1
155 *2570:90 *2570:89 0.5
156 *2570:90 *2570:87 0.2825
157 *2570:91 *2570:90 0.5
158 *2570:89 *2570:88 0.2325
159 *2570:88 *238:CLK 1
160 *2570:95 *2570:94 0.5
161 *2570:95 *2570:92 0.2825
162 *2570:96 *2570:95 0.5
163 *2570:94 *2570:93 0.2325
164 *2570:93 *239:CLK 1
165 *2570:85 *2570:84 1.085714
166 *2570:85 *2570:77 6.242858
167 *2570:86 *2570:85 0.5
168 *2570:98 *2570:97 0.5
169 *2570:97 *2570:96 1.604464
170 *2570:97 *2570:91 3.233036
171 *2570:99 *2570:98 4.837501
172 *2570:100 *2570:99 0.5
173 *2570:100 *2570:86 15.17589
174 *2570:191 *2570:190 7.847322
175 *2570:192 *2570:191 0.5
176 *2570:192 *2570:100 8.685716
177 *2570:79 *2570:78 0.2325
178 *2570:80 *2570:79 0.5
179 *2570:78 *240:CLK 1
180 *2570:82 *2570:81 0.2325
181 *2570:83 *2570:82 0.5
182 *2570:81 *340:CLK 1
183 *2570:194 *2570:193 0.5
184 *2570:193 *2570:192 1.061607
185 *2570:196 *2570:195 0.5
186 *2570:195 *2570:194 13.25179
187 *2570:197 *2570:196 0.2325
188 *2570:84 *2570:83 0.7901787
189 *2570:84 *2570:80 0.5410715
190 *2570:74 *2570:73 0.5428572
191 *2570:73 *2570:72 0.7901787
192 *2570:73 *2570:69 0.8142858
193 *2570:119 *2570:118 0.5410715
194 *2570:186 *2570:185 0.5187501
195 *2570:143 *2570:142 4.861607
196 *2570:61 *2570:60 8.685715

*END

*D_NET *2603 0.3525508 //LENGTH 4.664 LUMPCC 0 DR

*CONN
*I *68:Y O *L 0 *C 39.960 6.064
*I *70:A2 I *L 0.54421 *C 41.525 5.152
*I *113:A2 I *L 0.515513 *C 42.696 5.152
*N *2603:3 *C 42.696 5.139
*N *2603:4 *C 42.696 5.000
*N *2603:5 *C 42.683 5.000
*N *2603:6 *C 41.480 5.152
*N *2603:7 *C 41.480 5.139
*N *2603:8 *C 41.480 5.000
*N *2603:9 *C 41.480 5.000
*N *2603:10 *C 39.974 5.000
*N *2603:11 *C 39.960 5.014
*N *2603:12 *C 39.960 6.051

*CAP
0 *68:Y 0.001
1 *70:A2 0.008655568
2 *113:A2 0.001
3 *2603:3 0.009258616
4 *2603:4 0.01040215
5 *2603:5 0.04516853
6 *2603:6 0.00706144
7 *2603:7 0.01708331
8 *2603:8 0.01689841
9 *2603:9 0.09811681
10 *2603:10 0.05116924
11 *2603:11 0.04394012
12 *2603:12 0.04279658

*RES
0 *68:Y *2603:12 1
1 *2603:4 *2603:3 0.2325
2 *2603:5 *2603:4 0.5
3 *2603:3 *113:A2 1
4 *2603:8 *2603:7 0.2325
5 *2603:9 *2603:8 0.5
6 *2603:9 *2603:5 2.147322
7 *2603:6 *70:A2 0.09166668
8 *2603:7 *2603:6 1
9 *2603:11 *2603:10 0.5
10 *2603:10 *2603:9 2.690179
11 *2603:12 *2603:11 1.851786

*END

*D_NET *2606 5.212444 //LENGTH 65.495 LUMPCC 0 DR

*CONN
*I *46:Y O *L 0 *C 34.184 27.800
*I *57:A3 I *L 0.498109 *C 33.880 23.240
*I *115:A5 I *L 0.583269 *C 31.144 20.808
*I *55:A3 I *L 0.507548 *C 30.688 16.552
*I *501:A I *L 0.561607 *C 30.414 14.120
*I *47:A5 I *L 0.583269 *C 21.872 29.320
*I *51:A3 I *L 0.498109 *C 24.912 29.928
*I *49:A3 I *L 0.507548 *C 19.592 29.928
*I *106:A4 I *L 0.552216 *C 21.568 34.488
*I *63:A3 I *L 0.498109 *C 19.896 46.648
*I *61:A3 I *L 0.507548 *C 18.680 43.304
*I *59:A5 I *L 0.583269 *C 16.400 42.696
*I *109:A5 I *L 0.583269 *C 20.656 42.696
*N *2606:13 *C 34.184 27.618
*N *2606:14 *C 20.656 42.697
*N *2606:15 *C 20.656 43.291
*N *2606:16 *C 20.643 43.304
*N *2606:17 *C 16.400 42.697
*N *2606:18 *C 16.400 43.291
*N *2606:19 *C 16.413 43.304
*N *2606:20 *C 18.680 43.122
*N *2606:21 *C 18.680 43.291
*N *2606:22 *C 18.680 43.304
*N *2606:23 *C 19.896 46.635
*N *2606:24 *C 19.896 43.318
*N *2606:25 *C 19.896 43.304
*N *2606:26 *C 20.517 43.304
*N *2606:27 *C 20.504 43.291
*N *2606:28 *C 21.568 34.356
*N *2606:29 *C 21.568 34.476
*N *2606:30 *C 21.555 34.488
*N *2606:31 *C 20.518 34.488
*N *2606:32 *C 20.504 34.488
*N *2606:33 *C 19.592 29.915
*N *2606:34 *C 19.592 29.334
*N *2606:35 *C 19.605 29.320
*N *2606:36 *C 20.491 29.320
*N *2606:37 *C 20.504 29.334
*N *2606:38 *C 20.518 29.320
*N *2606:39 *C 23.848 29.138
*N *2606:40 *C 24.912 29.915
*N *2606:41 *C 24.912 29.334
*N *2606:42 *C 24.899 29.320
*N *2606:43 *C 21.872 29.188
*N *2606:44 *C 21.872 29.308
*N *2606:45 *C 21.886 29.320
*N *2606:46 *C 23.848 29.320
*N *2606:47 *C 23.848 29.308
*N *2606:48 *C 23.848 29.320
*N *2606:49 *C 33.867 29.320
*N *2606:50 *C 33.880 29.306
*N *2606:51 *C 30.673 14.120
*N *2606:52 *C 30.688 14.134
*N *2606:53 *C 30.688 16.538
*N *2606:54 *C 30.702 16.552
*N *2606:55 *C 31.131 16.552
*N *2606:56 *C 31.144 16.566
*N *2606:57 *C 31.144 20.808
*N *2606:58 *C 31.144 22.315
*N *2606:59 *C 31.158 22.328
*N *2606:60 *C 33.880 23.227
*N *2606:61 *C 33.880 22.341
*N *2606:62 *C 33.867 22.328
*N *2606:63 *C 33.880 22.341
*N *2606:64 *C 33.880 27.800
*N *2606:65 *C 33.894 27.800
*N *2606:66 *C 34.171 27.800
*N *2606:67 *C 34.184 27.788

*CAP
0 *46:Y 0.001
1 *57:A3 0.001
2 *115:A5 0.001
3 *55:A3 0.001
4 *501:A 0.02053403
5 *47:A5 0.001
6 *51:A3 0.001
7 *49:A3 0.001
8 *106:A4 0.001
9 *63:A3 0.001
10 *61:A3 0.001
11 *59:A5 0.001
12 *109:A5 0.001
13 *2606:13 0.01078068
14 *2606:14 0.03317329
15 *2606:15 0.03431683
16 *2606:16 0.01024676
17 *2606:17 0.03822115
18 *2606:18 0.03936469
19 *2606:19 0.09265879
20 *2606:20 0.01307512
21 *2606:21 0.008373518
22 *2606:22 0.1455058
23 *2606:23 0.1742555
24 *2606:24 0.1753991
25 *2606:25 0.08112018
26 *2606:26 0.04029901
27 *2606:27 0.3287365
28 *2606:28 0.01054372
29 *2606:29 0.00435959
30 *2606:30 0.03775157
31 *2606:31 0.0392342
32 *2606:32 0.4961455
33 *2606:33 0.03802356
34 *2606:34 0.03916709
35 *2606:35 0.04273222
36 *2606:36 0.04273232
37 *2606:37 0.1638512
38 *2606:38 0.09031846
39 *2606:39 0.01069345
40 *2606:40 0.02984991
41 *2606:41 0.03099344
42 *2606:42 0.04911214
43 *2606:43 0.01410306
44 *2606:44 0.007918932
45 *2606:45 0.08911698
46 *2606:46 0.1414908
47 *2606:47 0.007135729
48 *2606:48 0.3934573
49 *2606:49 0.3013601
50 *2606:50 0.04881506
51 *2606:51 0.0189399
52 *2606:52 0.1497238
53 *2606:53 0.1466164
54 *2606:54 0.02250852
55 *2606:55 0.02250852
56 *2606:56 0.2568021
57 *2606:57 0.3408634
58 *2606:58 0.08342574
59 *2606:59 0.118675
60 *2606:60 0.04692617
61 *2606:61 0.0480697
62 *2606:62 0.1168961
63 *2606:63 0.1844428
64 *2606:64 0.2350367
65 *2606:65 0.01398153
66 *2606:66 0.01398143
67 *2606:67 0.00607908

*RES
0 *46:Y *2606:67 1
1 *2606:65 *2606:64 0.5
2 *2606:64 *2606:63 9.747323
3 *2606:64 *2606:50 2.690179
4 *2606:67 *2606:66 0.5
5 *2606:67 *2606:13 0.2825
6 *2606:66 *2606:65 0.4946429
7 *2606:62 *2606:61 0.5
8 *2606:62 *2606:59 4.837501
9 *2606:63 *2606:62 0.5
10 *2606:61 *2606:60 1.580357
11 *2606:60 *57:A3 1
12 *2606:58 *2606:57 2.690179
13 *2606:59 *2606:58 0.5
14 *2606:57 *115:A5 1
15 *2606:57 *2606:56 7.575893
16 *2606:56 *2606:55 0.5
17 *2606:55 *2606:54 0.7660714
18 *2606:53 *55:A3 1
19 *2606:53 *2606:52 4.294643
20 *2606:54 *2606:53 0.5
21 *2606:51 *501:A 0.5180001
22 *2606:52 *2606:51 1
23 *2606:41 *2606:40 1.0375
24 *2606:42 *2606:41 0.5
25 *2606:40 *51:A3 1
26 *2606:50 *2606:49 0.5
27 *2606:49 *2606:48 17.89018
28 *2606:47 *2606:46 0.5
29 *2606:47 *2606:39 0.2825
30 *2606:48 *2606:47 0.5
31 *2606:48 *2606:38 5.947322
32 *2606:46 *2606:45 3.504464
33 *2606:46 *2606:42 1.875893
34 *2606:44 *47:A5 1
35 *2606:44 *2606:43 0.1991667
36 *2606:45 *2606:44 0.5
37 *2606:15 *2606:14 1.059822
38 *2606:16 *2606:15 0.5
39 *2606:14 *109:A5 1
40 *2606:26 *2606:25 1.108036
41 *2606:26 *2606:16 0.2116667
42 *2606:27 *2606:26 0.5
43 *2606:31 *2606:30 1.851786
44 *2606:32 *2606:31 0.5
45 *2606:32 *2606:27 15.71875
46 *2606:29 *106:A4 1
47 *2606:29 *2606:28 0.1991667
48 *2606:30 *2606:29 0.5
49 *2606:37 *2606:36 0.5
50 *2606:37 *2606:32 9.204465
51 *2606:38 *2606:37 0.5
52 *2606:24 *2606:23 5.923215
53 *2606:25 *2606:24 0.5
54 *2606:25 *2606:22 2.171429
55 *2606:23 *63:A3 1
56 *2606:36 *2606:35 1.580357
57 *2606:34 *2606:33 1.0375
58 *2606:35 *2606:34 0.5
59 *2606:33 *49:A3 1
60 *2606:21 *61:A3 1
61 *2606:21 *2606:20 0.2825
62 *2606:22 *2606:21 0.5
63 *2606:22 *2606:19 4.047322
64 *2606:18 *2606:17 1.059821
65 *2606:19 *2606:18 0.5
66 *2606:17 *59:A5 1

*END

*D_NET *2612 1.57182 //LENGTH 19.865 LUMPCC 0 DR

*CONN
*I *54:Y O *L 0 *C 29.046 12.750
*I *117:A1 I *L 0.601783 *C 29.624 12.448
*I *116:A3 I *L 0.539281 *C 31.448 22.328
*I *58:A1 I *L 0.502229 *C 31.904 25.976
*I *116:A1 I *L 0.484201 *C 32.056 22.632
*N *2612:5 *C 32.056 22.619
*N *2612:6 *C 32.056 22.038
*N *2612:7 *C 32.043 22.024
*N *2612:8 *C 31.904 25.963
*N *2612:9 *C 31.904 25.368
*N *2612:10 *C 31.448 25.368
*N *2612:11 *C 31.448 22.328
*N *2612:12 *C 31.448 22.038
*N *2612:13 *C 31.448 22.024
*N *2612:14 *C 30.854 22.024
*N *2612:15 *C 30.840 22.011
*N *2612:16 *C 30.840 20.822
*N *2612:17 *C 30.827 20.808
*N *2612:18 *C 29.030 20.808
*N *2612:19 *C 29.016 20.794
*N *2612:20 *C 29.016 13.222
*N *2612:21 *C 29.030 13.208
*N *2612:22 *C 29.611 13.208
*N *2612:23 *C 29.624 13.195
*N *2612:24 *C 29.624 12.462
*N *2612:25 *C 29.624 12.752
*N *2612:26 *C 29.609 12.752

*CAP
0 *54:Y 0.03521848
1 *117:A1 0.001
2 *116:A3 0.001
3 *58:A1 0.001
4 *116:A1 0.001
5 *2612:5 0.03456914
6 *2612:6 0.03571267
7 *2612:7 0.02756024
8 *2612:8 0.02350013
9 *2612:9 0.04420357
10 *2612:10 0.1534124
11 *2612:11 0.1523966
12 *2612:12 0.01790858
13 *2612:13 0.05676984
14 *2612:14 0.02743067
15 *2612:15 0.04966129
16 *2612:16 0.04966129
17 *2612:17 0.0978208
18 *2612:18 0.0978208
19 *2612:19 0.24232
20 *2612:20 0.24232
21 *2612:21 0.02685583
22 *2612:22 0.02685573
23 *2612:23 0.02783102
24 *2612:24 0.01671409
25 *2612:25 0.04765258
26 *2612:26 0.03362436

*RES
0 *54:Y *2612:26 1.126
1 *2612:8 *58:A1 1
2 *2612:6 *2612:5 1.0375
3 *2612:7 *2612:6 0.5
4 *2612:5 *116:A1 1
5 *2612:11 *116:A3 1
6 *2612:11 *2612:10 5.428572
7 *2612:12 *2612:11 0.5187501
8 *2612:13 *2612:12 0.5
9 *2612:13 *2612:7 1.061607
10 *2612:24 *117:A1 1
11 *2612:26 *2612:25 1
12 *2612:25 *2612:24 0.5187501
13 *2612:25 *2612:23 0.7901786
14 *2612:14 *2612:13 1.061607
15 *2612:15 *2612:14 0.5
16 *2612:17 *2612:16 0.5
17 *2612:16 *2612:15 2.123214
18 *2612:18 *2612:17 3.208929
19 *2612:19 *2612:18 0.5
20 *2612:21 *2612:20 0.5
21 *2612:20 *2612:19 13.52322
22 *2612:23 *2612:22 0.5
23 *2612:22 *2612:21 1.0375
24 *2612:10 *2612:9 0.8142858
25 *2612:9 *2612:8 1.061607

*END

*D_NET *2615 3.730923 //LENGTH 40.949 LUMPCC 0 DR

*CONN
*I *396:Q O *L 0 *C 16.704 21.112
*I *388:A2 I *L 0.501039 *C 17.464 21.112
*I *387:A4 I *L 0.569168 *C 18.376 24.000
*I *63:A2 I *L 0.498632 *C 20.101 46.192
*I *236:A2 I *L 0.538095 *C 27.740 40.720
*I *350:A2 I *L 0.501039 *C 20.033 35.704
*N *2615:6 *C 27.937 40.720
*N *2615:7 *C 27.952 40.708
*N *2615:8 *C 27.952 40.568
*N *2615:9 *C 27.939 40.568
*N *2615:10 *C 20.048 46.192
*N *2615:11 *C 20.048 46.178
*N *2615:12 *C 20.048 45.446
*N *2615:13 *C 20.062 45.432
*N *2615:14 *C 20.794 45.432
*N *2615:15 *C 20.808 45.419
*N *2615:16 *C 20.808 40.582
*N *2615:17 *C 20.808 40.568
*N *2615:18 *C 20.062 40.568
*N *2615:19 *C 20.048 40.555
*N *2615:20 *C 20.048 35.718
*N *2615:21 *C 20.033 35.704
*N *2615:22 *C 18.695 35.704
*N *2615:23 *C 18.680 35.691
*N *2615:24 *C 18.680 34.184
*N *2615:25 *C 18.528 34.184
*N *2615:26 *C 18.528 24.456
*N *2615:27 *C 18.376 24.014
*N *2615:28 *C 18.376 24.456
*N *2615:29 *C 18.363 24.456
*N *2615:30 *C 16.718 24.456
*N *2615:31 *C 16.704 24.443
*N *2615:32 *C 17.464 21.099
*N *2615:33 *C 17.464 20.822
*N *2615:34 *C 17.451 20.808
*N *2615:35 *C 16.718 20.808
*N *2615:36 *C 16.704 20.822
*N *2615:37 *C 16.704 21.112

*CAP
0 *396:Q 0.001
1 *388:A2 0.001
2 *387:A4 0.001
3 *63:A2 0.007900878
4 *236:A2 0.01858511
5 *350:A2 0.001
6 *2615:6 0.01699098
7 *2615:7 0.01688396
8 *2615:8 0.01669906
9 *2615:9 0.2741194
10 *2615:10 0.006306751
11 *2615:11 0.05918885
12 *2615:12 0.05900394
13 *2615:13 0.03363459
14 *2615:14 0.03363469
15 *2615:15 0.1782624
16 *2615:16 0.1782624
17 *2615:17 0.3085237
18 *2615:18 0.03262516
19 *2615:19 0.2740953
20 *2615:20 0.2729518
21 *2615:21 0.05805572
22 *2615:22 0.05938416
23 *2615:23 0.07648055
24 *2615:24 0.0848423
25 *2615:25 0.5075825
26 *2615:26 0.5087759
27 *2615:27 0.02986882
28 *2615:28 0.03897335
29 *2615:29 0.0682703
30 *2615:30 0.0682703
31 *2615:31 0.1448273
32 *2615:32 0.01673061
33 *2615:33 0.01787414
34 *2615:34 0.04220773
35 *2615:35 0.04220773
36 *2615:36 0.01471979
37 *2615:37 0.1601826

*RES
0 *396:Q *2615:37 1
1 *2615:8 *2615:7 0.2325
2 *2615:9 *2615:8 0.5
3 *2615:6 *236:A2 0.394
4 *2615:7 *2615:6 1
5 *2615:17 *2615:16 0.5
6 *2615:17 *2615:9 12.73304
7 *2615:16 *2615:15 8.637501
8 *2615:14 *2615:13 1.308929
9 *2615:15 *2615:14 0.5
10 *2615:12 *2615:11 1.308929
11 *2615:13 *2615:12 0.5
12 *2615:10 *63:A2 0.09166668
13 *2615:11 *2615:10 1
14 *2615:19 *2615:18 0.5
15 *2615:18 *2615:17 1.333036
16 *2615:20 *2615:19 8.637501
17 *2615:22 *2615:21 2.6754
18 *2615:23 *2615:22 1
19 *2615:27 *387:A4 1
20 *2615:28 *2615:27 0.7901786
21 *2615:28 *2615:26 0.2714286
22 *2615:29 *2615:28 0.5
23 *2615:31 *2615:30 0.5
24 *2615:30 *2615:29 2.9375
25 *2615:37 *2615:36 0.5187501
26 *2615:37 *2615:31 5.947322
27 *2615:36 *2615:35 0.5
28 *2615:35 *2615:34 1.308929
29 *2615:33 *2615:32 0.4946429
30 *2615:34 *2615:33 0.5
31 *2615:32 *388:A2 1
32 *2615:26 *2615:25 17.37143
33 *2615:25 *2615:24 0.2714286
34 *2615:24 *2615:23 2.690179
35 *2615:21 *2615:20 1
36 *2615:21 *350:A2 0.001

*END

*D_NET *2619 3.698872 //LENGTH 39.916 LUMPCC 0 DR

*CONN
*I *408:Q O *L 0 *C 21.416 8.952
*I *386:A4 I *L 0.569168 *C 20.200 12.752
*I *387:A2 I *L 0.501039 *C 18.558 24.456
*I *51:A2 I *L 0.498632 *C 25.216 29.472
*I *277:A2 I *L 0.52073 *C 29.016 34.032
*I *354:A2 I *L 0.501039 *C 24.304 27.800
*N *2619:6 *C 24.304 27.787
*N *2619:7 *C 29.016 34.019
*N *2619:8 *C 29.016 31.766
*N *2619:9 *C 29.003 31.752
*N *2619:10 *C 25.230 31.752
*N *2619:11 *C 25.216 31.739
*N *2619:12 *C 25.216 29.472
*N *2619:13 *C 25.216 27.206
*N *2619:14 *C 25.203 27.192
*N *2619:15 *C 24.318 27.192
*N *2619:16 *C 24.304 27.206
*N *2619:17 *C 24.152 27.192
*N *2619:18 *C 24.152 25.078
*N *2619:19 *C 24.139 25.064
*N *2619:20 *C 19.758 25.064
*N *2619:21 *C 19.744 25.050
*N *2619:22 *C 19.744 24.456
*N *2619:23 *C 18.984 24.274
*N *2619:24 *C 18.969 24.456
*N *2619:25 *C 18.984 24.444
*N *2619:26 *C 18.998 24.456
*N *2619:27 *C 19.579 24.456
*N *2619:28 *C 19.592 24.456
*N *2619:29 *C 19.592 12.918
*N *2619:30 *C 19.605 12.904
*N *2619:31 *C 20.200 12.752
*N *2619:32 *C 20.200 12.892
*N *2619:33 *C 20.200 12.904
*N *2619:34 *C 21.402 12.904
*N *2619:35 *C 21.416 12.891
*N *2619:36 *C 21.416 8.966

*CAP
0 *408:Q 0.001
1 *386:A4 0.001
2 *387:A2 0.02375905
3 *51:A2 0.001
4 *277:A2 0.001
5 *354:A2 0.001
6 *2619:6 0.04630031
7 *2619:7 0.1086036
8 *2619:8 0.1097472
9 *2619:9 0.1418205
10 *2619:10 0.1418205
11 *2619:11 0.1182536
12 *2619:12 0.2525716
13 *2619:13 0.1336826
14 *2619:14 0.05315862
15 *2619:15 0.05315862
16 *2619:16 0.05465723
17 *2619:17 0.1566274
18 *2619:18 0.147635
19 *2619:19 0.1808884
20 *2619:20 0.1808884
21 *2619:21 0.04135893
22 *2619:22 0.05067698
23 *2619:23 0.01456002
24 *2619:24 0.02216492
25 *2619:25 0.01118686
26 *2619:26 0.02831139
27 *2619:27 0.02831139
28 *2619:28 0.530026
29 *2619:29 0.522487
30 *2619:30 0.02788535
31 *2619:31 0.009125858
32 *2619:32 0.01026939
33 *2619:33 0.08487672
34 *2619:34 0.05521233
35 *2619:35 0.1774947
36 *2619:36 0.1763511

*RES
0 *408:Q *2619:36 1
1 *2619:11 *2619:10 0.5
2 *2619:10 *2619:9 6.7375
3 *2619:8 *2619:7 4.023215
4 *2619:9 *2619:8 0.5
5 *2619:7 *277:A2 1
6 *2619:12 *51:A2 1
7 *2619:12 *2619:11 4.047321
8 *2619:6 *354:A2 1
9 *2619:13 *2619:12 4.047322
10 *2619:14 *2619:13 0.5
11 *2619:16 *2619:15 0.5
12 *2619:16 *2619:6 1.0375
13 *2619:15 *2619:14 1.580357
14 *2619:35 *2619:34 0.5
15 *2619:34 *2619:33 2.147322
16 *2619:36 *2619:35 7.008929
17 *2619:32 *2619:31 0.2325
18 *2619:33 *2619:32 0.5
19 *2619:33 *2619:30 1.061607
20 *2619:31 *386:A4 1
21 *2619:18 *2619:17 3.775893
22 *2619:19 *2619:18 0.5
23 *2619:21 *2619:20 0.5
24 *2619:20 *2619:19 7.823215
25 *2619:29 *2619:28 20.60447
26 *2619:30 *2619:29 0.5
27 *2619:28 *2619:27 0.5
28 *2619:28 *2619:22 0.2714286
29 *2619:27 *2619:26 1.0375
30 *2619:25 *2619:24 1
31 *2619:25 *2619:23 0.2825
32 *2619:26 *2619:25 0.5
33 *2619:24 *387:A2 0.822
34 *2619:22 *2619:21 1.061607
35 *2619:17 *2619:16 0.2714286

*END

*D_NET *2623 2.587927 //LENGTH 32.210 LUMPCC 0 DR

*CONN
*I *400:Q O *L 0 *C 16.704 15.640
*I *389:A4 I *L 0.569168 *C 17.464 17.312
*I *358:A2 I *L 0.501039 *C 29.472 22.328
*I *329:A2 I *L 0.466516 *C 36.464 25.976
*I *57:A2 I *L 0.498632 *C 34.184 22.784
*N *2623:5 *C 34.184 22.771
*N *2623:6 *C 36.464 25.975
*N *2623:7 *C 36.464 22.646
*N *2623:8 *C 36.451 22.632
*N *2623:9 *C 34.198 22.632
*N *2623:10 *C 34.184 22.606
*N *2623:11 *C 34.184 21.733
*N *2623:12 *C 34.171 21.720
*N *2623:13 *C 29.472 22.315
*N *2623:14 *C 29.472 21.733
*N *2623:15 *C 29.472 21.720
*N *2623:16 *C 27.358 21.720
*N *2623:17 *C 27.344 21.707
*N *2623:18 *C 27.344 18.390
*N *2623:19 *C 27.331 18.376
*N *2623:20 *C 19.910 18.376
*N *2623:21 *C 19.896 18.363
*N *2623:22 *C 19.896 17.174
*N *2623:23 *C 19.883 17.160
*N *2623:24 *C 17.464 17.311
*N *2623:25 *C 17.464 17.174
*N *2623:26 *C 17.464 17.160
*N *2623:27 *C 16.718 17.160
*N *2623:28 *C 16.704 17.146
*N *2623:29 *C 16.704 15.654

*CAP
0 *400:Q 0.001
1 *389:A4 0.001
2 *358:A2 0.001
3 *329:A2 0.001
4 *57:A2 0.001
5 *2623:5 0.007933079
6 *2623:6 0.1381534
7 *2623:7 0.1391641
8 *2623:8 0.09600443
9 *2623:9 0.09600443
10 *2623:10 0.07316417
11 *2623:11 0.06230851
12 *2623:12 0.1904165
13 *2623:13 0.02845463
14 *2623:14 0.02959816
15 *2623:15 0.2639281
16 *2623:16 0.07173255
17 *2623:17 0.1371736
18 *2623:18 0.1371736
19 *2623:19 0.2934434
20 *2623:20 0.2934434
21 *2623:21 0.06285696
22 *2623:22 0.06285696
23 *2623:23 0.08664392
24 *2623:24 0.01198877
25 *2623:25 0.0131323
26 *2623:26 0.1183305
27 *2623:27 0.02990752
28 *2623:28 0.07012838
29 *2623:29 0.06898485

*RES
0 *400:Q *2623:29 1
1 *2623:5 *57:A2 1
2 *2623:10 *2623:9 0.5
3 *2623:10 *2623:5 0.2758334
4 *2623:9 *2623:8 4.023214
5 *2623:7 *2623:6 5.945536
6 *2623:8 *2623:7 0.5
7 *2623:6 *329:A2 1
8 *2623:11 *2623:10 1.558036
9 *2623:12 *2623:11 0.5
10 *2623:14 *2623:13 1.0375
11 *2623:15 *2623:14 0.5
12 *2623:15 *2623:12 8.390179
13 *2623:13 *358:A2 1
14 *2623:17 *2623:16 0.5
15 *2623:16 *2623:15 3.775893
16 *2623:18 *2623:17 5.923214
17 *2623:19 *2623:18 0.5
18 *2623:21 *2623:20 0.5
19 *2623:20 *2623:19 13.25179
20 *2623:22 *2623:21 2.123214
21 *2623:23 *2623:22 0.5
22 *2623:25 *2623:24 0.2455357
23 *2623:26 *2623:25 0.5
24 *2623:26 *2623:23 4.31875
25 *2623:24 *389:A4 1
26 *2623:28 *2623:27 0.5
27 *2623:27 *2623:26 1.333036
28 *2623:29 *2623:28 2.666071

*END

*D_NET *2627 3.296589 //LENGTH 46.453 LUMPCC 0 DR

*CONN
*I *404:Q O *L 0 *C 16.400 18.984
*I *389:A2 I *L 0.501039 *C 17.646 17.768
*I *69:A2 I *L 0.498632 *C 41.480 7.280
*I *301:A2 I *L 0.482724 *C 42.696 12.600
*I *346:A2 I *L 0.501039 *C 23.544 8.952
*I *388:A4 I *L 0.569168 *C 17.616 20.656
*N *2627:6 *C 17.616 20.643
*N *2627:7 *C 23.544 8.966
*N *2627:8 *C 23.544 9.242
*N *2627:9 *C 23.544 9.074
*N *2627:10 *C 42.696 12.587
*N *2627:11 *C 42.696 10.486
*N *2627:12 *C 42.683 10.472
*N *2627:13 *C 41.190 10.472
*N *2627:14 *C 41.176 10.459
*N *2627:15 *C 41.480 7.294
*N *2627:16 *C 41.480 8.331
*N *2627:17 *C 41.467 8.344
*N *2627:18 *C 41.190 8.344
*N *2627:19 *C 41.176 8.357
*N *2627:20 *C 41.176 9.256
*N *2627:21 *C 41.163 9.256
*N *2627:22 *C 23.558 9.256
*N *2627:23 *C 23.544 9.244
*N *2627:24 *C 23.530 9.256
*N *2627:25 *C 22.950 9.256
*N *2627:26 *C 22.936 9.270
*N *2627:27 *C 22.936 16.538
*N *2627:28 *C 22.922 16.552
*N *2627:29 *C 18.238 16.552
*N *2627:30 *C 18.224 16.566
*N *2627:31 *C 18.209 17.768
*N *2627:32 *C 18.224 17.755
*N *2627:33 *C 18.210 17.768
*N *2627:34 *C 17.630 17.768
*N *2627:35 *C 17.616 17.782
*N *2627:36 *C 17.616 19.288
*N *2627:37 *C 17.602 19.288
*N *2627:38 *C 16.413 19.288
*N *2627:39 *C 16.400 19.274
*N *2627:40 *C 16.400 18.998

*CAP
0 *404:Q 0.001
1 *389:A2 0.02855708
2 *69:A2 0.001
3 *301:A2 0.001
4 *346:A2 0.001
5 *388:A4 0.001
6 *2627:6 0.08233565
7 *2627:7 0.02021405
8 *2627:8 0.02135758
9 *2627:9 0.01008573
10 *2627:10 0.08884656
11 *2627:11 0.08999009
12 *2627:12 0.07132063
13 *2627:13 0.07132073
14 *2627:14 0.03842505
15 *2627:15 0.05372909
16 *2627:16 0.05487263
17 *2627:17 0.01407385
18 *2627:18 0.01407395
19 *2627:19 0.02939866
20 *2627:20 0.06960279
21 *2627:21 0.5118992
22 *2627:22 0.5118992
23 *2627:23 0.006528011
24 *2627:24 0.03010738
25 *2627:25 0.03188641
26 *2627:26 0.2443233
27 *2627:27 0.2443233
28 *2627:28 0.157828
29 *2627:29 0.1578279
30 *2627:30 0.06608286
31 *2627:31 0.02696296
32 *2627:32 0.06448873
33 *2627:33 0.03188744
34 *2627:34 0.03188744
35 *2627:35 0.09045491
36 *2627:36 0.1757131
37 *2627:37 0.05817846
38 *2627:38 0.05817846
39 *2627:39 0.01703574
40 *2627:40 0.0158922

*RES
0 *404:Q *2627:40 1
1 *2627:13 *2627:12 2.666071
2 *2627:14 *2627:13 0.5
3 *2627:11 *2627:10 3.751786
4 *2627:12 *2627:11 0.5
5 *2627:10 *301:A2 1
6 *2627:18 *2627:17 0.4946429
7 *2627:19 *2627:18 0.5
8 *2627:16 *2627:15 1.851786
9 *2627:17 *2627:16 0.5
10 *2627:15 *69:A2 1
11 *2627:20 *2627:19 1.604464
12 *2627:20 *2627:14 2.147322
13 *2627:21 *2627:20 0.5
14 *2627:23 *2627:22 0.5
15 *2627:23 *2627:9 0.2825
16 *2627:22 *2627:21 31.4375
17 *2627:24 *2627:23 0.5
18 *2627:24 *2627:8 0.5
19 *2627:8 *2627:7 0.4946429
20 *2627:7 *346:A2 1
21 *2627:25 *2627:24 1.0375
22 *2627:26 *2627:25 0.5
23 *2627:28 *2627:27 0.5
24 *2627:27 *2627:26 12.98036
25 *2627:30 *2627:29 0.5
26 *2627:29 *2627:28 8.366073
27 *2627:31 *389:A2 1.126
28 *2627:32 *2627:31 1
29 *2627:32 *2627:30 2.123214
30 *2627:6 *388:A4 1
31 *2627:33 *2627:32 0.5
32 *2627:35 *2627:34 0.5
33 *2627:34 *2627:33 1.0375
34 *2627:36 *2627:35 2.690179
35 *2627:36 *2627:6 2.41875
36 *2627:37 *2627:36 0.5
37 *2627:39 *2627:38 0.5
38 *2627:38 *2627:37 2.123214
39 *2627:40 *2627:39 0.4946429

*END

*D_NET *2631 2.429735 //LENGTH 27.993 LUMPCC 0 DR

*CONN
*I *241:Q O *L 0 *C 28.560 39.048
*I *210:A5 I *L 0.566579 *C 30.384 42.696
*I *322:A4 I *L 0.514778 *C 29.320 45.888
*I *95:A4 I *L 0.514778 *C 24.608 45.888
*I *94:A2 I *L 0.504426 *C 22.480 45.736
*I *63:A6 I *L 0.558565 *C 19.440 46.344
*I *319:A2 I *L 0.45541 *C 32.360 40.872
*N *2631:7 *C 32.360 40.858
*N *2631:8 *C 32.360 40.582
*N *2631:9 *C 32.346 40.568
*N *2631:10 *C 19.440 46.212
*N *2631:11 *C 19.440 46.332
*N *2631:12 *C 19.454 46.344
*N *2631:13 *C 22.480 45.750
*N *2631:14 *C 22.480 46.331
*N *2631:15 *C 22.480 46.344
*N *2631:16 *C 24.608 45.902
*N *2631:17 *C 24.608 46.331
*N *2631:18 *C 24.608 46.344
*N *2631:19 *C 29.320 45.902
*N *2631:20 *C 29.320 46.331
*N *2631:21 *C 29.320 46.344
*N *2631:22 *C 30.827 46.344
*N *2631:23 *C 30.840 46.331
*N *2631:24 *C 30.840 42.696
*N *2631:25 *C 30.688 42.696
*N *2631:26 *C 30.384 42.683
*N *2631:27 *C 30.384 41.190
*N *2631:28 *C 30.398 41.176
*N *2631:29 *C 30.675 41.176
*N *2631:30 *C 30.688 41.176
*N *2631:31 *C 30.840 41.176
*N *2631:32 *C 30.840 40.582
*N *2631:33 *C 30.840 40.568
*N *2631:34 *C 28.574 40.568
*N *2631:35 *C 28.560 40.555
*N *2631:36 *C 28.560 39.062

*CAP
0 *241:Q 0.001
1 *210:A5 0.001
2 *322:A4 0.001
3 *95:A4 0.001
4 *94:A2 0.001
5 *63:A6 0.001
6 *319:A2 0.001
7 *2631:7 0.01746518
8 *2631:8 0.01860871
9 *2631:9 0.06349342
10 *2631:10 0.01201887
11 *2631:11 0.005834738
12 *2631:12 0.1013089
13 *2631:13 0.03912618
14 *2631:14 0.04026971
15 *2631:15 0.1787846
16 *2631:16 0.02273132
17 *2631:17 0.02387486
18 *2631:18 0.2468382
19 *2631:19 0.02855587
20 *2631:20 0.0296994
21 *2631:21 0.225044
22 *2631:22 0.05241988
23 *2631:23 0.1760526
24 *2631:24 0.1854014
25 *2631:25 0.1118958
26 *2631:26 0.09207505
27 *2631:27 0.09321858
28 *2631:28 0.01383563
29 *2631:29 0.01383563
30 *2631:30 0.1097116
31 *2631:31 0.04511829
32 *2631:32 0.03617454
33 *2631:33 0.1655846
34 *2631:34 0.1003121
35 *2631:35 0.08729443
36 *2631:36 0.08615091

*RES
0 *241:Q *2631:36 1
1 *2631:8 *2631:7 0.4946429
2 *2631:9 *2631:8 0.5
3 *2631:7 *319:A2 1
4 *2631:32 *2631:31 1.061607
5 *2631:33 *2631:32 0.5
6 *2631:33 *2631:9 2.690179
7 *2631:30 *2631:29 0.5
8 *2631:30 *2631:25 2.714286
9 *2631:29 *2631:28 0.4946429
10 *2631:27 *2631:26 2.666071
11 *2631:28 *2631:27 0.5
12 *2631:26 *210:A5 1
13 *2631:23 *2631:22 0.5
14 *2631:22 *2631:21 2.690179
15 *2631:20 *2631:19 0.7660714
16 *2631:21 *2631:20 0.5
17 *2631:21 *2631:18 8.414287
18 *2631:19 *322:A4 1
19 *2631:35 *2631:34 0.5
20 *2631:34 *2631:33 4.047322
21 *2631:36 *2631:35 2.666072
22 *2631:17 *2631:16 0.7660714
23 *2631:18 *2631:17 0.5
24 *2631:18 *2631:15 3.8
25 *2631:16 *95:A4 1
26 *2631:14 *2631:13 1.0375
27 *2631:15 *2631:14 0.5
28 *2631:15 *2631:12 5.404464
29 *2631:13 *94:A2 1
30 *2631:11 *63:A6 1
31 *2631:11 *2631:10 0.1991667
32 *2631:12 *2631:11 0.5
33 *2631:31 *2631:30 0.2714286
34 *2631:25 *2631:24 0.2714286
35 *2631:24 *2631:23 6.490179

*END

*D_NET *2636 1.92311 //LENGTH 22.726 LUMPCC 0 DR

*CONN
*I *339:Q O *L 0 *C 31.904 37.832
*I *258:A1 I *L 0.666174 *C 32.360 34.336
*I *272:A1 I *L 0.526794 *C 30.688 32.512
*I *277:A3 I *L 0.507548 *C 29.320 33.576
*I *505:A2 I *L 0.52073 *C 27.952 34.032
*I *102:A2 I *L 0.504426 *C 24.912 32.360
*I *103:A2 I *L 0.515513 *C 24.304 34.944
*I *106:A6 I *L 0.609639 *C 22.176 33.728
*I *278:A2 I *L 0.578798 *C 31.904 36.008
*N *2636:9 *C 31.904 36.022
*N *2636:10 *C 22.176 33.729
*N *2636:11 *C 22.176 34.474
*N *2636:12 *C 22.190 34.488
*N *2636:13 *C 24.304 34.931
*N *2636:14 *C 24.304 34.792
*N *2636:15 *C 24.318 34.792
*N *2636:16 *C 24.899 34.792
*N *2636:17 *C 24.912 34.779
*N *2636:18 *C 24.912 32.373
*N *2636:19 *C 24.912 34.488
*N *2636:20 *C 24.912 34.488
*N *2636:21 *C 27.952 34.488
*N *2636:22 *C 27.952 34.032
*N *2636:23 *C 27.952 34.172
*N *2636:24 *C 27.952 34.184
*N *2636:25 *C 29.320 33.590
*N *2636:26 *C 29.320 34.171
*N *2636:27 *C 29.320 34.184
*N *2636:28 *C 30.688 32.526
*N *2636:29 *C 30.688 34.171
*N *2636:30 *C 30.688 34.184
*N *2636:31 *C 32.346 34.184
*N *2636:32 *C 32.360 34.197
*N *2636:33 *C 32.360 34.349
*N *2636:34 *C 32.360 36.299
*N *2636:35 *C 32.346 36.312
*N *2636:36 *C 31.918 36.312
*N *2636:37 *C 31.904 36.312
*N *2636:38 *C 31.904 37.819

*CAP
0 *339:Q 0.001
1 *258:A1 0.001
2 *272:A1 0.001
3 *277:A3 0.001
4 *505:A2 0.001
5 *102:A2 0.001
6 *103:A2 0.001
7 *106:A6 0.001
8 *278:A2 0.001
9 *2636:9 0.01595372
10 *2636:10 0.03597628
11 *2636:11 0.03711981
12 *2636:12 0.1043481
13 *2636:13 0.01297775
14 *2636:14 0.01412128
15 *2636:15 0.02756047
16 *2636:16 0.02756047
17 *2636:17 0.01458368
18 *2636:18 0.1124434
19 *2636:19 0.1299496
20 *2636:20 0.2285783
21 *2636:21 0.1354883
22 *2636:22 0.0114555
23 *2636:23 0.01259903
24 *2636:24 0.06968912
25 *2636:25 0.0298851
26 *2636:26 0.03102864
27 *2636:27 0.1158312
28 *2636:28 0.07445448
29 *2636:29 0.07559801
30 *2636:30 0.1247112
31 *2636:31 0.06731103
32 *2636:32 0.011905
33 *2636:33 0.1088313
34 *2636:34 0.0962908
35 *2636:35 0.02234844
36 *2636:36 0.02234844
37 *2636:37 0.08159078
38 *2636:38 0.06157096

*RES
0 *339:Q *2636:38 1
1 *2636:33 *258:A1 1
2 *2636:33 *2636:32 0.255
3 *2636:38 *2636:37 2.690179
4 *2636:9 *278:A2 1
5 *2636:34 *2636:33 3.480358
6 *2636:35 *2636:34 0.5
7 *2636:37 *2636:36 0.5
8 *2636:37 *2636:9 0.5187501
9 *2636:36 *2636:35 0.7660715
10 *2636:32 *2636:31 0.5
11 *2636:31 *2636:30 2.961607
12 *2636:29 *2636:28 2.9375
13 *2636:30 *2636:29 0.5
14 *2636:30 *2636:27 2.442857
15 *2636:28 *272:A1 1
16 *2636:26 *2636:25 1.0375
17 *2636:27 *2636:26 0.5
18 *2636:27 *2636:24 2.442857
19 *2636:25 *277:A3 1
20 *2636:23 *2636:22 0.2325
21 *2636:24 *2636:23 0.5
22 *2636:24 *2636:21 0.5428572
23 *2636:22 *505:A2 1
24 *2636:19 *2636:18 3.775893
25 *2636:19 *2636:17 0.51875
26 *2636:20 *2636:19 0.5
27 *2636:20 *2636:12 4.861608
28 *2636:18 *102:A2 1
29 *2636:17 *2636:16 0.5
30 *2636:16 *2636:15 1.0375
31 *2636:14 *2636:13 0.2325
32 *2636:15 *2636:14 0.5
33 *2636:13 *103:A2 1
34 *2636:11 *2636:10 1.33125
35 *2636:12 *2636:11 0.5
36 *2636:10 *106:A6 1
37 *2636:21 *2636:20 5.428572

*END

*D_NET *2641 1.851731 //LENGTH 21.271 LUMPCC 0 DR

*CONN
*I *248:Q O *L 0 *C 38.288 15.640
*I *507:A5 I *L 0.542358 *C 43.912 10.624
*I *253:A2 I *L 0.578798 *C 43.760 14.120
*I *81:A1 I *L 0.47367 *C 38.136 10.776
*I *77:A2 I *L 0.504426 *C 37.832 8.952
*I *65:A4 I *L 0.552216 *C 36.768 7.736
*N *2641:6 *C 36.768 7.737
*N *2641:7 *C 36.768 9.242
*N *2641:8 *C 36.782 9.256
*N *2641:9 *C 37.832 8.966
*N *2641:10 *C 37.832 9.242
*N *2641:11 *C 37.832 9.256
*N *2641:12 *C 38.123 9.256
*N *2641:13 *C 38.136 9.270
*N *2641:14 *C 38.136 10.776
*N *2641:15 *C 37.954 11.688
*N *2641:16 *C 43.608 12.114
*N *2641:17 *C 43.761 14.120
*N *2641:18 *C 43.912 14.120
*N *2641:19 *C 43.912 10.638
*N *2641:20 *C 43.912 12.296
*N *2641:21 *C 43.899 12.296
*N *2641:22 *C 43.622 12.296
*N *2641:23 *C 43.608 12.284
*N *2641:24 *C 43.595 12.296
*N *2641:25 *C 38.150 12.296
*N *2641:26 *C 38.136 12.283
*N *2641:27 *C 38.136 11.702
*N *2641:28 *C 38.123 11.688
*N *2641:29 *C 38.136 11.688
*N *2641:30 *C 38.288 11.688
*N *2641:31 *C 38.288 15.627

*CAP
0 *248:Q 0.001
1 *507:A5 0.001
2 *253:A2 0.001
3 *81:A1 0.001
4 *77:A2 0.001
5 *65:A4 0.001
6 *2641:6 0.09024733
7 *2641:7 0.09139086
8 *2641:8 0.05365288
9 *2641:9 0.023765
10 *2641:10 0.02490853
11 *2641:11 0.07143894
12 *2641:12 0.01600703
13 *2641:13 0.08622969
14 *2641:14 0.1386729
15 *2641:15 0.01191219
16 *2641:16 0.01165647
17 *2641:17 0.006723159
18 *2641:18 0.1000996
19 *2641:19 0.06646437
20 *2641:20 0.1580618
21 *2641:21 0.01429001
22 *2641:22 0.01429012
23 *2641:23 0.008098752
24 *2641:24 0.1482894
25 *2641:25 0.1482894
26 *2641:26 0.02128193
27 *2641:27 0.02128179
28 *2641:28 0.008354221
29 *2641:29 0.05928852
30 *2641:30 0.2307199
31 *2641:31 0.2203165

*RES
0 *248:Q *2641:31 1
1 *2641:19 *507:A5 1
2 *2641:17 *253:A2 1
3 *2641:31 *2641:30 7.033036
4 *2641:14 *81:A1 1
5 *2641:14 *2641:13 2.690179
6 *2641:20 *2641:19 2.961607
7 *2641:20 *2641:18 3.257143
8 *2641:21 *2641:20 0.5
9 *2641:22 *2641:21 0.4946429
10 *2641:23 *2641:22 0.5
11 *2641:23 *2641:16 0.2825
12 *2641:24 *2641:23 0.5
13 *2641:26 *2641:25 0.5
14 *2641:25 *2641:24 9.723215
15 *2641:28 *2641:27 0.5
16 *2641:28 *2641:15 0.2825
17 *2641:27 *2641:26 1.0375
18 *2641:29 *2641:28 0.5
19 *2641:29 *2641:14 1.628572
20 *2641:13 *2641:12 0.5
21 *2641:12 *2641:11 0.5187501
22 *2641:10 *2641:9 0.4946429
23 *2641:11 *2641:10 0.5
24 *2641:11 *2641:8 1.875893
25 *2641:9 *77:A2 1
26 *2641:7 *2641:6 2.688393
27 *2641:8 *2641:7 0.5
28 *2641:6 *65:A4 1
29 *2641:30 *2641:29 0.2714286
30 *2641:18 *2641:17 0.2696429

*END

*D_NET *2646 1.324436 //LENGTH 12.930 LUMPCC 0 DR

*CONN
*I *365:Q O *L 0 *C 30.232 8.952
*I *357:A4 I *L 0.569168 *C 29.472 10.624
*I *55:A4 I *L 0.552216 *C 30.840 15.640
*I *271:A1 I *L 1.20536 *C 33.272 16.096
*N *2646:4 *C 29.928 9.187
*N *2646:5 *C 29.928 9.682
*N *2646:6 *C 33.272 16.082
*N *2646:7 *C 33.272 15.654
*N *2646:8 *C 33.259 15.640
*N *2646:9 *C 30.840 15.508
*N *2646:10 *C 30.840 15.628
*N *2646:11 *C 30.840 15.640
*N *2646:12 *C 30.398 15.640
*N *2646:13 *C 30.384 15.627
*N *2646:14 *C 30.384 11.080
*N *2646:15 *C 30.232 11.080
*N *2646:16 *C 30.232 9.726
*N *2646:17 *C 30.232 9.712
*N *2646:18 *C 30.232 9.694
*N *2646:19 *C 30.262 9.682
*N *2646:20 *C 30.262 9.187
*N *2646:21 *C 30.262 9.007
*N *2646:22 *C 29.472 10.611
*N *2646:23 *C 29.472 9.270
*N *2646:24 *C 29.486 9.256
*N *2646:25 *C 30.219 9.256
*N *2646:26 *C 30.232 9.242
*N *2646:27 *C 30.232 8.966
*N *2646:28 *C 30.232 8.952

*CAP
0 *365:Q 0.001
1 *357:A4 0.001
2 *55:A4 0.001
3 *271:A1 0.001
4 *2646:4 0.001
5 *2646:5 0.001
6 *2646:6 0.02334239
7 *2646:7 0.02448592
8 *2646:8 0.1019611
9 *2646:9 0.01562721
10 *2646:10 0.009443087
11 *2646:11 0.1224411
12 *2646:12 0.02018352
13 *2646:13 0.2746039
14 *2646:14 0.2839938
15 *2646:15 0.09316065
16 *2646:16 0.08395566
17 *2646:17 0.002829487
18 *2646:18 0.004423614
19 *2646:19 0.001
20 *2646:20 0.001
21 *2646:21 0.001
22 *2646:22 0.06099783
23 *2646:23 0.06214136
24 *2646:24 0.04116901
25 *2646:25 0.04116901
26 *2646:26 0.02482552
27 *2646:27 0.02368199
28 *2646:28 0.001

*RES
0 *365:Q *2646:28 0.001
1 *2646:7 *2646:6 0.7660715
2 *2646:8 *2646:7 0.5
3 *2646:6 *271:A1 1
4 *2646:10 *55:A4 1
5 *2646:10 *2646:9 0.1991667
6 *2646:11 *2646:10 0.5
7 *2646:11 *2646:8 4.31875
8 *2646:13 *2646:12 0.5
9 *2646:12 *2646:11 0.7901786
10 *2646:17 *2646:16 1
11 *2646:16 *2646:15 2.41875
12 *2646:22 *357:A4 1
13 *2646:23 *2646:22 2.394643
14 *2646:24 *2646:23 0.5
15 *2646:26 *2646:25 0.5
16 *2646:25 *2646:24 1.308929
17 *2646:27 *2646:26 0.4946429
18 *2646:15 *2646:14 0.2714286
19 *2646:14 *2646:13 8.118751
20 *2646:18 *2646:17 0.01590909
21 *2646:18 *2646:5 0.608
22 *2646:20 *2646:19 0.9900001
23 *2646:20 *2646:4 0.6680001
24 *2646:19 *2646:18 0.06
25 *2646:21 *2646:20 0.36
26 *2646:28 *2646:27 1
27 *2646:28 *2646:21 0.05027273

*END

*D_NET *2648 0.8254074 //LENGTH 7.345 LUMPCC 0 DR

*CONN
*I *367:Q O *L 0 *C 29.168 15.640
*I *71:A I *L 0.582888 *C 29.776 17.464
*I *359:A4 I *L 0.569168 *C 30.992 17.312
*I *115:A6 I *L 0.609639 *C 30.992 20.352
*N *2648:4 *C 30.992 20.351
*N *2648:5 *C 30.992 17.325
*N *2648:6 *C 30.992 17.477
*N *2648:7 *C 30.979 17.464
*N *2648:8 *C 29.776 17.282
*N *2648:9 *C 29.776 17.451
*N *2648:10 *C 29.776 17.464
*N *2648:11 *C 29.181 17.464
*N *2648:12 *C 29.168 17.451
*N *2648:13 *C 29.168 15.654

*CAP
0 *367:Q 0.001
1 *71:A 0.001
2 *359:A4 0.001
3 *115:A6 0.001
4 *2648:4 0.2055407
5 *2648:5 0.01334026
6 *2648:6 0.2229471
7 *2648:7 0.05260398
8 *2648:8 0.01726459
9 *2648:9 0.01256298
10 *2648:10 0.08057339
11 *2648:11 0.02619037
12 *2648:12 0.09576382
13 *2648:13 0.0946203

*RES
0 *367:Q *2648:13 1
1 *2648:4 *115:A6 1
2 *2648:5 *359:A4 1
3 *2648:6 *2648:5 0.255
4 *2648:6 *2648:4 5.13125
5 *2648:7 *2648:6 0.5
6 *2648:9 *71:A 1
7 *2648:9 *2648:8 0.2825
8 *2648:10 *2648:9 0.5
9 *2648:10 *2648:7 2.147322
10 *2648:12 *2648:11 0.5
11 *2648:11 *2648:10 1.061607
12 *2648:13 *2648:12 3.208929

*END

*D_NET *2652 1.986827 //LENGTH 28.028 LUMPCC 0 DR

*CONN
*I *375:Q O *L 0 *C 25.824 5.608
*I *82:A I *L 0.582888 *C 43.608 7.432
*I *112:A6 I *L 0.609639 *C 43.152 9.712
*I *347:A4 I *L 0.569168 *C 24.912 9.408
*N *2652:4 *C 24.912 9.395
*N *2652:5 *C 24.912 8.357
*N *2652:6 *C 24.899 8.344
*N *2652:7 *C 24.760 8.344
*N *2652:8 *C 24.760 8.331
*N *2652:9 *C 24.760 7.446
*N *2652:10 *C 24.774 7.432
*N *2652:11 *C 25.672 7.250
*N *2652:12 *C 43.152 9.711
*N *2652:13 *C 43.608 7.446
*N *2652:14 *C 43.608 7.584
*N *2652:15 *C 43.456 7.584
*N *2652:16 *C 43.456 8.344
*N *2652:17 *C 43.152 8.344
*N *2652:18 *C 43.152 8.344
*N *2652:19 *C 43.291 8.344
*N *2652:20 *C 43.304 8.331
*N *2652:21 *C 43.304 7.446
*N *2652:22 *C 43.291 7.432
*N *2652:23 *C 25.686 7.432
*N *2652:24 *C 25.672 7.420
*N *2652:25 *C 25.684 7.432
*N *2652:26 *C 25.812 7.432
*N *2652:27 *C 25.824 7.419
*N *2652:28 *C 25.824 5.622

*CAP
0 *375:Q 0.001
1 *82:A 0.001
2 *112:A6 0.001
3 *347:A4 0.001
4 *2652:4 0.05720523
5 *2652:5 0.05834876
6 *2652:6 0.008026483
7 *2652:7 0.008026584
8 *2652:8 0.03531796
9 *2652:9 0.03531796
10 *2652:10 0.0324235
11 *2652:11 0.009933828
12 *2652:12 0.07282539
13 *2652:13 0.007903595
14 *2652:14 0.01795944
15 *2652:15 0.05252624
16 *2652:16 0.05816269
17 *2652:17 0.08673865
18 *2652:18 0.01006482
19 *2652:19 0.01006492
20 *2652:20 0.03673139
21 *2652:21 0.03673154
22 *2652:22 0.5615205
23 *2652:23 0.5615205
24 *2652:24 0.006376109
25 *2652:25 0.04102018
26 *2652:26 0.00681765
27 *2652:27 0.08620349
28 *2652:28 0.08505997

*RES
0 *375:Q *2652:28 1
1 *2652:13 *82:A 1
2 *2652:12 *112:A6 1
3 *2652:27 *2652:26 0.5
4 *2652:26 *2652:25 0.2116667
5 *2652:28 *2652:27 3.208929
6 *2652:17 *2652:16 0.5428572
7 *2652:17 *2652:12 2.441072
8 *2652:18 *2652:17 0.5
9 *2652:19 *2652:18 0.2325
10 *2652:20 *2652:19 0.5
11 *2652:21 *2652:20 1.580357
12 *2652:22 *2652:21 0.5
13 *2652:24 *2652:23 0.5
14 *2652:24 *2652:11 0.2825
15 *2652:23 *2652:22 31.4375
16 *2652:25 *2652:24 0.5
17 *2652:25 *2652:10 1.626786
18 *2652:10 *2652:9 0.5
19 *2652:9 *2652:8 1.580357
20 *2652:7 *2652:6 0.2325
21 *2652:8 *2652:7 0.5
22 *2652:5 *2652:4 1.851786
23 *2652:6 *2652:5 0.5
24 *2652:4 *347:A4 1
25 *2652:16 *2652:15 1.357143
26 *2652:15 *2652:14 0.2714286
27 *2652:14 *2652:13 0.2473214

*END

*D_NET *2658 1.024142 //LENGTH 10.660 LUMPCC 0 DR

*CONN
*I *369:Q O *L 0 *C 13.816 27.800
*I *353:A4 I *L 0.569168 *C 19.136 27.344
*I *49:A4 I *L 0.552216 *C 19.408 29.016
*I *97:A I *L 0.582888 *C 18.973 30.840
*N *2658:4 *C 13.816 27.618
*N *2658:5 *C 18.845 30.840
*N *2658:6 *C 18.831 30.840
*N *2658:7 *C 18.680 30.840
*N *2658:8 *C 18.680 29.030
*N *2658:9 *C 18.694 29.016
*N *2658:10 *C 19.123 29.016
*N *2658:11 *C 19.151 29.016
*N *2658:12 *C 19.136 29.003
*N *2658:13 *C 19.136 27.358
*N *2658:14 *C 19.136 27.800
*N *2658:15 *C 19.123 27.800
*N *2658:16 *C 13.830 27.800
*N *2658:17 *C 13.816 27.788

*CAP
0 *369:Q 0.001
1 *353:A4 0.001
2 *49:A4 0.02128279
3 *97:A 0.01254861
4 *2658:4 0.0106514
5 *2658:5 0.01095449
6 *2658:6 0.006937651
7 *2658:7 0.1377867
8 *2658:8 0.1274759
9 *2658:9 0.0177296
10 *2658:10 0.0177296
11 *2658:11 0.01968866
12 *2658:12 0.08468342
13 *2658:13 0.03309974
14 *2658:14 0.1222999
15 *2658:15 0.1966618
16 *2658:16 0.1966618
17 *2658:17 0.005949797

*RES
0 *369:Q *2658:17 1
1 *2658:11 *49:A4 0.5140001
2 *2658:12 *2658:11 1
3 *2658:12 *2658:10 0.5
4 *2658:13 *353:A4 1
5 *2658:10 *2658:9 0.7660714
6 *2658:8 *2658:7 3.233036
7 *2658:9 *2658:8 0.5
8 *2658:5 *97:A 0.2133333
9 *2658:6 *2658:5 1
10 *2658:14 *2658:13 0.7901786
11 *2658:14 *2658:12 2.147322
12 *2658:15 *2658:14 0.5
13 *2658:17 *2658:16 0.5
14 *2658:17 *2658:4 0.2825
15 *2658:16 *2658:15 9.451786
16 *2658:7 *2658:6 0.2696429

*END

*D_NET *2661 2.391194 //LENGTH 27.808 LUMPCC 0 DR

*CONN
*I *501:Y O *L 0 *C 29.624 13.968
*I *53:A5 I *L 0.583269 *C 30.990 10.768
*I *65:A5 I *L 0.583269 *C 36.312 7.432
*I *67:A3 I *L 0.507548 *C 38.288 6.824
*I *69:A3 I *L 0.498109 *C 41.176 6.824
*I *112:A5 I *L 0.583269 *C 43.000 9.256
*N *2661:6 *C 43.000 9.242
*N *2661:7 *C 43.000 6.534
*N *2661:8 *C 42.986 6.520
*N *2661:9 *C 41.480 6.520
*N *2661:10 *C 41.480 6.824
*N *2661:11 *C 41.176 6.642
*N *2661:12 *C 41.176 6.812
*N *2661:13 *C 41.176 6.824
*N *2661:14 *C 41.176 7.128
*N *2661:15 *C 39.062 7.128
*N *2661:16 *C 39.048 7.142
*N *2661:17 *C 39.048 8.331
*N *2661:18 *C 39.048 8.343
*N *2661:19 *C 39.048 8.040
*N *2661:20 *C 38.288 6.838
*N *2661:21 *C 38.288 8.027
*N *2661:22 *C 38.288 8.040
*N *2661:23 *C 36.312 7.433
*N *2661:24 *C 36.312 8.027
*N *2661:25 *C 36.312 8.040
*N *2661:26 *C 31.006 8.040
*N *2661:27 *C 30.992 8.053
*N *2661:28 *C 30.885 10.776
*N *2661:29 *C 30.841 10.776
*N *2661:30 *C 30.992 10.776
*N *2661:31 *C 30.992 13.803
*N *2661:32 *C 30.979 13.816
*N *2661:33 *C 29.638 13.816
*N *2661:34 *C 29.624 13.816
*N *2661:35 *C 29.624 13.956

*CAP
0 *501:Y 0.001
1 *53:A5 0.009259337
2 *65:A5 0.001
3 *67:A3 0.001
4 *69:A3 0.001
5 *112:A5 0.001
6 *2661:6 0.128537
7 *2661:7 0.1296806
8 *2661:8 0.05519483
9 *2661:9 0.06896401
10 *2661:10 0.02903596
11 *2661:11 0.01440531
12 *2661:12 0.009703706
13 *2661:13 0.02701566
14 *2661:14 0.1020733
15 *2661:15 0.08854546
16 *2661:16 0.04306296
17 *2661:17 0.04306296
18 *2661:18 0.008886982
19 *2661:19 0.04182551
20 *2661:20 0.06822055
21 *2661:21 0.06936408
22 *2661:22 0.1155586
23 *2661:23 0.03537194
24 *2661:24 0.03651548
25 *2661:25 0.3010787
26 *2661:26 0.2149007
27 *2661:27 0.1452612
28 *2661:28 0.007665209
29 *2661:29 0.006423681
30 *2661:30 0.3079586
31 *2661:31 0.1511215
32 *2661:32 0.05026674
33 *2661:33 0.05026674
34 *2661:34 0.01405506
35 *2661:35 0.01291152

*RES
0 *501:Y *2661:35 1
1 *2661:7 *2661:6 4.837501
2 *2661:8 *2661:7 0.5
3 *2661:6 *112:A5 1
4 *2661:12 *69:A3 1
5 *2661:12 *2661:11 0.2825
6 *2661:13 *2661:12 0.5
7 *2661:13 *2661:10 0.5428572
8 *2661:15 *2661:14 3.775893
9 *2661:16 *2661:15 0.5
10 *2661:18 *2661:17 0.5
11 *2661:17 *2661:16 2.123214
12 *2661:21 *2661:20 2.123214
13 *2661:22 *2661:21 0.5
14 *2661:22 *2661:19 1.357143
15 *2661:20 *67:A3 1
16 *2661:24 *2661:23 1.059822
17 *2661:25 *2661:24 0.5
18 *2661:25 *2661:22 3.528572
19 *2661:23 *65:A5 1
20 *2661:27 *2661:26 0.5
21 *2661:26 *2661:25 9.475893
22 *2661:28 *53:A5 0.01666667
23 *2661:29 *2661:28 1
24 *2661:31 *2661:30 5.404464
25 *2661:32 *2661:31 0.5
26 *2661:34 *2661:33 0.5
27 *2661:33 *2661:32 2.394643
28 *2661:35 *2661:34 0.2325
29 *2661:30 *2661:29 0.2696429
30 *2661:30 *2661:27 4.861607
31 *2661:19 *2661:18 0.5410715
32 *2661:14 *2661:13 0.5428572
33 *2661:10 *2661:9 0.5428572
34 *2661:9 *2661:8 2.690179

*END

*D_NET *2673 0.654082 //LENGTH 7.282 LUMPCC 0 DR

*CONN
*I *78:Y O *L 0 *C 6.368 39.656
*I *229:D I *L 0.543569 *C 5.456 34.032
*N *2673:2 *C 5.456 34.046
*N *2673:3 *C 5.456 34.488
*N *2673:4 *C 5.304 34.488
*N *2673:5 *C 5.304 39.035
*N *2673:6 *C 5.317 39.048
*N *2673:7 *C 6.355 39.048
*N *2673:8 *C 6.368 39.062
*N *2673:9 *C 6.368 39.643

*CAP
0 *78:Y 0.001
1 *229:D 0.001
2 *2673:2 0.02136331
3 *2673:3 0.03095518
4 *2673:4 0.2218481
5 *2673:5 0.2133998
6 *2673:6 0.03727541
7 *2673:7 0.03727541
8 *2673:8 0.04555419
9 *2673:9 0.04441066

*RES
0 *78:Y *2673:9 1
1 *2673:2 *229:D 1
2 *2673:5 *2673:4 8.118751
3 *2673:6 *2673:5 0.5
4 *2673:8 *2673:7 0.5
5 *2673:7 *2673:6 1.851786
6 *2673:9 *2673:8 1.0375
7 *2673:4 *2673:3 0.2714286
8 *2673:3 *2673:2 0.7901786

*END

*D_NET *2680 0.492713 //LENGTH 5.067 LUMPCC 0 DR

*CONN
*I *159:Y O *L 0 *C 8.648 37.528
*I *160:A2 I *L 0.693299 *C 7.282 40.872
*N *2680:2 *C 7.280 40.846
*N *2680:3 *C 7.280 39.974
*N *2680:4 *C 7.294 39.960
*N *2680:5 *C 8.635 39.960
*N *2680:6 *C 8.648 39.947
*N *2680:7 *C 8.648 37.541

*CAP
0 *159:Y 0.001
1 *160:A2 0.001
2 *2680:2 0.04444968
3 *2680:3 0.04625743
4 *2680:4 0.05334112
5 *2680:5 0.05334112
6 *2680:6 0.1472336
7 *2680:7 0.1460901

*RES
0 *159:Y *2680:7 1
1 *2680:2 *160:A2 0.5
2 *2680:3 *2680:2 1.558036
3 *2680:4 *2680:3 0.5
4 *2680:6 *2680:5 0.5
5 *2680:5 *2680:4 2.394643
6 *2680:7 *2680:6 4.294643

*END

*D_NET *2683 7.59073 //LENGTH 90.027 LUMPCC 0 DR

*CONN
*I *172:Y O *L 0 *C 42.240 26.128
*I *295:A1 I *L 0.514394 *C 40.872 17.616
*I *289:A2 I *L 0.466516 *C 39.808 20.808
*I *329:A1 I *L 0.549073 *C 36.312 25.672
*I *280:A1 I *L 0.549073 *C 29.624 27.800
*I *277:A1 I *L 0.514394 *C 28.864 34.336
*I *505:A5 I *L 0.583269 *C 27.344 34.184
*I *317:A1 I *L 0.549073 *C 23.544 42.392
*I *325:A1 I *L 0.526794 *C 22.480 42.544
*I *285:A1 I *L 0.549073 *C 22.906 27.825
*I *211:A1 I *L 0.582918 *C 11.689 42.696
*I *327:A5 I *L 0.583269 *C 27.344 42.696
*I *313:A3 I *L 0.532459 *C 31.448 43.608
*I *236:A1 I *L 0.520769 *C 27.496 41.024
*I *272:A3 I *L 0.532459 *C 30.840 33.272
*N *2683:15 *C 30.840 33.090
*N *2683:16 *C 30.840 33.260
*N *2683:17 *C 30.827 33.272
*N *2683:18 *C 27.496 41.038
*N *2683:19 *C 27.496 41.176
*N *2683:20 *C 31.448 43.426
*N *2683:21 *C 31.448 43.596
*N *2683:22 *C 31.434 43.608
*N *2683:23 *C 27.358 43.608
*N *2683:24 *C 27.344 43.595
*N *2683:25 *C 27.344 42.696
*N *2683:26 *C 11.688 42.514
*N *2683:27 *C 11.506 42.696
*N *2683:28 *C 11.750 42.696
*N *2683:29 *C 11.750 42.696
*N *2683:30 *C 11.688 42.696
*N *2683:31 *C 11.676 42.696
*N *2683:32 *C 11.688 42.684
*N *2683:33 *C 11.702 42.696
*N *2683:34 *C 22.315 42.696
*N *2683:35 *C 22.328 42.683
*N *2683:36 *C 22.328 42.406
*N *2683:37 *C 22.341 42.392
*N *2683:38 *C 22.647 27.800
*N *2683:39 *C 22.632 27.814
*N *2683:40 *C 22.480 42.531
*N *2683:41 *C 22.480 42.392
*N *2683:42 *C 22.632 42.379
*N *2683:43 *C 22.632 42.392
*N *2683:44 *C 23.544 42.260
*N *2683:45 *C 23.544 42.380
*N *2683:46 *C 23.544 42.392
*N *2683:47 *C 27.331 42.392
*N *2683:48 *C 27.344 42.392
*N *2683:49 *C 27.344 41.176
*N *2683:50 *C 27.344 34.184
*N *2683:51 *C 27.344 33.285
*N *2683:52 *C 27.358 33.272
*N *2683:53 *C 28.864 34.323
*N *2683:54 *C 28.864 33.285
*N *2683:55 *C 28.864 33.272
*N *2683:56 *C 29.624 33.272
*N *2683:57 *C 29.624 33.259
*N *2683:58 *C 29.624 27.800
*N *2683:59 *C 29.624 26.598
*N *2683:60 *C 29.638 26.584
*N *2683:61 *C 36.130 25.672
*N *2683:62 *C 36.312 25.540
*N *2683:63 *C 36.312 25.660
*N *2683:64 *C 36.300 25.672
*N *2683:65 *C 36.312 25.686
*N *2683:66 *C 36.312 26.571
*N *2683:67 *C 36.312 26.584
*N *2683:68 *C 39.808 20.809
*N *2683:69 *C 39.808 26.571
*N *2683:70 *C 39.808 26.584
*N *2683:71 *C 40.858 26.584
*N *2683:72 *C 40.872 26.571
*N *2683:73 *C 40.690 18.376
*N *2683:74 *C 40.872 17.630
*N *2683:75 *C 40.872 18.363
*N *2683:76 *C 40.860 18.376
*N *2683:77 *C 40.872 18.390
*N *2683:78 *C 40.872 25.672
*N *2683:79 *C 40.886 25.672
*N *2683:80 *C 42.227 25.672
*N *2683:81 *C 42.240 25.686
*N *2683:82 *C 42.240 26.114

*CAP
0 *172:Y 0.001
1 *295:A1 0.001
2 *289:A2 0.001
3 *329:A1 0.001
4 *280:A1 0.001
5 *277:A1 0.001
6 *505:A5 0.001
7 *317:A1 0.001
8 *325:A1 0.001
9 *285:A1 0.01763226
10 *211:A1 0.01948993
11 *327:A5 0.001
12 *313:A3 0.001
13 *236:A1 0.001
14 *272:A3 0.001
15 *2683:15 0.01444843
16 *2683:16 0.009746827
17 *2683:17 0.05697397
18 *2683:18 0.01070957
19 *2683:19 0.02092703
20 *2683:20 0.01356611
21 *2683:21 0.008864508
22 *2683:22 0.1810238
23 *2683:23 0.1810238
24 *2683:24 0.04727539
25 *2683:25 0.06284205
26 *2683:26 0.00956622
27 *2683:27 0.01145218
28 *2683:28 0.01470755
29 *2683:29 0.01309647
30 *2683:30 0.001
31 *2683:31 0.007894213
32 *2683:32 0.0060085
33 *2683:33 0.3094887
34 *2683:34 0.3094887
35 *2683:35 0.01259851
36 *2683:36 0.01259837
37 *2683:37 0.01248427
38 *2683:38 0.01603813
39 *2683:39 0.692148
40 *2683:40 0.00886916
41 *2683:41 0.01925676
42 *2683:42 0.6994281
43 *2683:43 0.04699802
44 *2683:44 0.01494307
45 *2683:45 0.008758944
46 *2683:46 0.1954162
47 *2683:47 0.1623849
48 *2683:48 0.08318837
49 *2683:49 0.4369264
50 *2683:50 0.4006772
51 *2683:51 0.04044645
52 *2683:52 0.07251491
53 *2683:53 0.07211567
54 *2683:54 0.0732592
55 *2683:55 0.1089188
56 *2683:56 0.09337785
57 *2683:57 0.2313722
58 *2683:58 0.2924167
59 *2683:59 0.06040902
60 *2683:60 0.2861309
61 *2683:61 0.01176864
62 *2683:62 0.0145332
63 *2683:63 0.008349075
64 *2683:64 0.00672814
65 *2683:65 0.03949356
66 *2683:66 0.03949356
67 *2683:67 0.4363103
68 *2683:68 0.2503392
69 *2683:69 0.2513499
70 *2683:70 0.1927772
71 *2683:71 0.0425981
72 *2683:72 0.03139833
73 *2683:73 0.01132958
74 *2683:74 0.03971257
75 *2683:75 0.04085611
76 *2683:76 0.007771611
77 *2683:77 0.2333827
78 *2683:78 0.26656
79 *2683:79 0.06091195
80 *2683:80 0.06091185
81 *2683:81 0.02569793
82 *2683:82 0.0245544

*RES
0 *172:Y *2683:82 1
1 *2683:79 *2683:78 0.5
2 *2683:78 *2683:77 13.00447
3 *2683:78 *2683:72 1.604464
4 *2683:81 *2683:80 0.5
5 *2683:80 *2683:79 2.394643
6 *2683:82 *2683:81 0.7660714
7 *2683:76 *2683:75 0.5
8 *2683:76 *2683:73 0.2825
9 *2683:77 *2683:76 0.5
10 *2683:75 *2683:74 1.308929
11 *2683:74 *295:A1 1
12 *2683:71 *2683:70 1.875893
13 *2683:72 *2683:71 0.5
14 *2683:69 *2683:68 10.28839
15 *2683:70 *2683:69 0.5
16 *2683:70 *2683:67 6.242857
17 *2683:68 *289:A2 1
18 *2683:67 *2683:66 0.5
19 *2683:67 *2683:60 11.91875
20 *2683:66 *2683:65 1.580357
21 *2683:64 *2683:63 0.5
22 *2683:64 *2683:61 0.2825
23 *2683:65 *2683:64 0.5
24 *2683:63 *329:A1 1
25 *2683:63 *2683:62 0.1991667
26 *2683:16 *272:A3 1
27 *2683:16 *2683:15 0.2825
28 *2683:17 *2683:16 0.5
29 *2683:57 *2683:56 0.5
30 *2683:56 *2683:55 1.357143
31 *2683:56 *2683:17 2.147322
32 *2683:58 *280:A1 1
33 *2683:58 *2683:57 9.747323
34 *2683:59 *2683:58 2.147322
35 *2683:60 *2683:59 0.5
36 *2683:54 *2683:53 1.851786
37 *2683:55 *2683:54 0.5
38 *2683:55 *2683:52 2.690179
39 *2683:53 *277:A1 1
40 *2683:18 *236:A1 1
41 *2683:24 *2683:23 0.5
42 *2683:23 *2683:22 7.280358
43 *2683:21 *313:A3 1
44 *2683:21 *2683:20 0.2825
45 *2683:22 *2683:21 0.5
46 *2683:25 *327:A5 1
47 *2683:25 *2683:24 1.604464
48 *2683:50 *505:A5 1
49 *2683:50 *2683:49 12.48571
50 *2683:51 *2683:50 1.604464
51 *2683:52 *2683:51 0.5
52 *2683:48 *2683:47 0.5
53 *2683:48 *2683:25 0.5428572
54 *2683:47 *2683:46 6.761608
55 *2683:45 *317:A1 1
56 *2683:45 *2683:44 0.1991667
57 *2683:46 *2683:45 0.5
58 *2683:46 *2683:43 1.628572
59 *2683:42 *2683:41 0.2714286
60 *2683:42 *2683:39 26.00893
61 *2683:43 *2683:42 0.5
62 *2683:43 *2683:37 0.5187501
63 *2683:38 *285:A1 0.5180001
64 *2683:39 *2683:38 1
65 *2683:40 *325:A1 1
66 *2683:37 *2683:36 0.5
67 *2683:36 *2683:35 0.4946429
68 *2683:35 *2683:34 0.5
69 *2683:34 *2683:33 18.95179
70 *2683:32 *2683:31 0.5
71 *2683:32 *2683:26 0.2825
72 *2683:33 *2683:32 0.5
73 *2683:31 *2683:30 0.5
74 *2683:31 *2683:27 0.2825
75 *2683:30 *2683:29 0.05636364
76 *2683:28 *211:A1 0.1916667
77 *2683:29 *2683:28 0.5
78 *2683:41 *2683:40 0.2473214
79 *2683:49 *2683:48 2.171429
80 *2683:49 *2683:19 0.2714286
81 *2683:19 *2683:18 0.2473215

*END

*D_NET *2694 0.3065581 //LENGTH 3.562 LUMPCC 0 DR

*CONN
*I *144:Y O *L 0 *C 5.760 20.656
*I *145:A1 I *L 0.549073 *C 6.368 21.112
*I *297:A3 I *L 0.539281 *C 7.128 22.328
*N *2694:3 *C 7.128 22.315
*N *2694:4 *C 7.128 21.126
*N *2694:5 *C 7.115 21.112
*N *2694:6 *C 6.368 20.980
*N *2694:7 *C 6.368 21.100
*N *2694:8 *C 6.368 21.112
*N *2694:9 *C 5.774 21.112
*N *2694:10 *C 5.760 21.099
*N *2694:11 *C 5.760 20.669

*CAP
0 *144:Y 0.001
1 *145:A1 0.001
2 *297:A3 0.001
3 *2694:3 0.07427073
4 *2694:4 0.07541426
5 *2694:5 0.02546104
6 *2694:6 0.01278984
7 *2694:7 0.006605713
8 *2694:8 0.04330825
9 *2694:9 0.0175507
10 *2694:10 0.02465054
11 *2694:11 0.02350701

*RES
0 *144:Y *2694:11 1
1 *2694:4 *2694:3 2.123214
2 *2694:5 *2694:4 0.5
3 *2694:3 *297:A3 1
4 *2694:7 *145:A1 1
5 *2694:7 *2694:6 0.1991667
6 *2694:8 *2694:7 0.5
7 *2694:8 *2694:5 1.333036
8 *2694:10 *2694:9 0.5
9 *2694:9 *2694:8 1.061607
10 *2694:11 *2694:10 0.7660714

*END

*D_NET *2696 0.2707719 //LENGTH 2.798 LUMPCC 0 DR

*CONN
*I *142:Y O *L 0 *C 5.760 17.312
*I *143:A1 I *L 0.549073 *C 6.368 17.768
*I *310:A3 I *L 0.539281 *C 6.520 18.984
*N *2696:3 *C 6.519 18.984
*N *2696:4 *C 6.368 18.984
*N *2696:5 *C 6.368 17.768
*N *2696:6 *C 6.368 17.477
*N *2696:7 *C 6.355 17.464
*N *2696:8 *C 5.774 17.464
*N *2696:9 *C 5.760 17.451
*N *2696:10 *C 5.760 17.312

*CAP
0 *142:Y 0.001
1 *143:A1 0.001
2 *310:A3 0.001
3 *2696:3 0.004772915
4 *2696:4 0.08697779
5 *2696:5 0.09543794
6 *2696:6 0.01729917
7 *2696:7 0.02032612
8 *2696:8 0.02032612
9 *2696:9 0.01188767
10 *2696:10 0.01074414

*RES
0 *142:Y *2696:10 1
1 *2696:3 *310:A3 1
2 *2696:5 *143:A1 1
3 *2696:5 *2696:4 2.171429
4 *2696:6 *2696:5 0.5187501
5 *2696:7 *2696:6 0.5
6 *2696:9 *2696:8 0.5
7 *2696:8 *2696:7 1.0375
8 *2696:10 *2696:9 0.2325
9 *2696:4 *2696:3 0.2696429

*END

*D_NET *2699 0.8962613 //LENGTH 10.855 LUMPCC 0 DR

*CONN
*I *139:Y O *L 0 *C 10.776 9.256
*I *205:A2 I *L 0.515513 *C 6.824 11.536
*I *205:A1 I *L 0.484201 *C 6.976 10.776
*I *140:A I *L 0.582888 *C 6.520 14.120
*N *2699:4 *C 6.520 13.938
*N *2699:5 *C 6.520 14.107
*N *2699:6 *C 6.534 14.120
*N *2699:7 *C 6.963 14.120
*N *2699:8 *C 6.976 14.107
*N *2699:9 *C 6.976 10.790
*N *2699:10 *C 6.824 11.523
*N *2699:11 *C 6.824 11.080
*N *2699:12 *C 6.976 11.080
*N *2699:13 *C 6.990 11.080
*N *2699:14 *C 10.763 11.080
*N *2699:15 *C 10.776 11.067
*N *2699:16 *C 10.776 9.270

*CAP
0 *139:Y 0.001
1 *205:A2 0.001
2 *205:A1 0.001
3 *140:A 0.001
4 *2699:4 0.01177274
5 *2699:5 0.007071138
6 *2699:6 0.01991594
7 *2699:7 0.01991594
8 *2699:8 0.1329631
9 *2699:9 0.01252756
10 *2699:10 0.02653472
11 *2699:11 0.0370511
12 *2699:12 0.156007
13 *2699:13 0.1562569
14 *2699:14 0.1562569
15 *2699:15 0.07856596
16 *2699:16 0.07742243

*RES
0 *139:Y *2699:16 1
1 *2699:9 *205:A1 1
2 *2699:12 *2699:11 0.2714286
3 *2699:12 *2699:9 0.5187501
4 *2699:12 *2699:8 5.404464
5 *2699:13 *2699:12 0.5
6 *2699:15 *2699:14 0.5
7 *2699:14 *2699:13 6.7375
8 *2699:16 *2699:15 3.208929
9 *2699:10 *205:A2 1
10 *2699:8 *2699:7 0.5
11 *2699:7 *2699:6 0.7660714
12 *2699:5 *140:A 1
13 *2699:5 *2699:4 0.2825
14 *2699:6 *2699:5 0.5
15 *2699:11 *2699:10 0.7901787

*END

*D_NET *2702 0.4835679 //LENGTH 6.769 LUMPCC 0 DR

*CONN
*I *160:Y O *L 0 *C 7.736 40.568
*I *161:A2 I *L 0.61189 *C 8.496 40.872
*I *211:A2 I *L 0.697809 *C 11.386 42.848
*N *2702:3 *C 7.736 40.386
*N *2702:4 *C 11.384 42.822
*N *2702:5 *C 11.384 40.886
*N *2702:6 *C 11.370 40.872
*N *2702:7 *C 8.496 40.690
*N *2702:8 *C 8.496 40.860
*N *2702:9 *C 8.496 40.872
*N *2702:10 *C 8.344 40.872
*N *2702:11 *C 8.344 40.568
*N *2702:12 *C 7.750 40.568
*N *2702:13 *C 7.736 40.556

*CAP
0 *160:Y 0.001
1 *161:A2 0.001
2 *211:A2 0.001
3 *2702:3 0.01092545
4 *2702:4 0.07338136
5 *2702:5 0.07518911
6 *2702:6 0.09885131
7 *2702:7 0.01848242
8 *2702:8 0.01378082
9 *2702:9 0.1055941
10 *2702:10 0.01735874
11 *2702:11 0.03658783
12 *2702:12 0.02419287
13 *2702:13 0.00622385

*RES
0 *160:Y *2702:13 1
1 *2702:5 *2702:4 3.458036
2 *2702:6 *2702:5 0.5
3 *2702:4 *211:A2 0.5
4 *2702:8 *161:A2 1
5 *2702:8 *2702:7 0.2825
6 *2702:9 *2702:8 0.5
7 *2702:9 *2702:6 5.133036
8 *2702:13 *2702:12 0.5
9 *2702:13 *2702:3 0.2825
10 *2702:12 *2702:11 1.061607
11 *2702:11 *2702:10 0.5428572
12 *2702:10 *2702:9 0.2714286

*END

*D_NET *2705 0.2980284 //LENGTH 3.679 LUMPCC 0 DR

*CONN
*I *213:Y O *L 0 *C 5.760 36.160
*I *214:A2 I *L 0.515513 *C 8.192 35.248
*N *2705:2 *C 8.192 35.248
*N *2705:3 *C 8.192 35.388
*N *2705:4 *C 8.178 35.400
*N *2705:5 *C 5.774 35.400
*N *2705:6 *C 5.760 35.413
*N *2705:7 *C 5.760 36.147

*CAP
0 *213:Y 0.001
1 *214:A2 0.001
2 *2705:2 0.01194172
3 *2705:3 0.01308525
4 *2705:4 0.09404464
5 *2705:5 0.09404464
6 *2705:6 0.04202783
7 *2705:7 0.0408843

*RES
0 *213:Y *2705:7 1
1 *2705:2 *214:A2 1
2 *2705:3 *2705:2 0.2325
3 *2705:4 *2705:3 0.5
4 *2705:6 *2705:5 0.5
5 *2705:5 *2705:4 4.294643
6 *2705:7 *2705:6 1.308929

*END

*D_NET *2706 1.058079 //LENGTH 12.826 LUMPCC 0 DR

*CONN
*I *148:Y O *L 0 *C 5.608 26.128
*I *149:A1 I *L 0.549073 *C 7.128 25.672
*I *221:A1 I *L 0.601783 *C 10.472 32.512
*I *87:A3 I *L 0.539281 *C 7.736 27.800
*N *2706:4 *C 10.472 32.498
*N *2706:5 *C 10.472 27.814
*N *2706:6 *C 10.459 27.800
*N *2706:7 *C 7.750 27.800
*N *2706:8 *C 7.735 27.800
*N *2706:9 *C 7.584 27.800
*N *2706:10 *C 7.584 26.598
*N *2706:11 *C 7.571 26.584
*N *2706:12 *C 7.128 25.673
*N *2706:13 *C 7.128 26.571
*N *2706:14 *C 7.128 26.584
*N *2706:15 *C 5.622 26.584
*N *2706:16 *C 5.608 26.571
*N *2706:17 *C 5.608 26.142

*CAP
0 *148:Y 0.001
1 *149:A1 0.001
2 *221:A1 0.001
3 *87:A3 0.001
4 *2706:4 0.2012812
5 *2706:5 0.2024247
6 *2706:6 0.09444758
7 *2706:7 0.09444758
8 *2706:8 0.002627759
9 *2706:9 0.08171906
10 *2706:10 0.07261066
11 *2706:11 0.01824446
12 *2706:12 0.05391772
13 *2706:13 0.05506126
14 *2706:14 0.07853399
15 *2706:15 0.0585105
16 *2706:16 0.020698
17 *2706:17 0.01955446

*RES
0 *148:Y *2706:17 1
1 *2706:8 *2706:7 0.5
2 *2706:8 *87:A3 1
3 *2706:7 *2706:6 4.837501
4 *2706:5 *2706:4 8.366072
5 *2706:6 *2706:5 0.5
6 *2706:4 *221:A1 1
7 *2706:10 *2706:9 2.147322
8 *2706:11 *2706:10 0.5
9 *2706:13 *2706:12 1.602679
10 *2706:14 *2706:13 0.5
11 *2706:14 *2706:11 0.7901785
12 *2706:12 *149:A1 1
13 *2706:16 *2706:15 0.5
14 *2706:15 *2706:14 2.690179
15 *2706:17 *2706:16 0.7660714
16 *2706:9 *2706:8 0.2696429

*END

*D_NET *2709 0.5705593 //LENGTH 7.557 LUMPCC 0 DR

*CONN
*I *137:Q O *L 0 *C 13.512 37.832
*I *159:A4 I *L 0.565045 *C 8.040 37.528
*I *214:A1 I *L 0.484201 *C 8.040 36.008
*N *2709:3 *C 8.040 36.022
*N *2709:4 *C 8.040 37.515
*N *2709:5 *C 8.053 37.528
*N *2709:6 *C 13.498 37.528
*N *2709:7 *C 13.512 37.541
*N *2709:8 *C 13.512 37.819

*CAP
0 *137:Q 0.001
1 *159:A4 0.001
2 *214:A1 0.001
3 *2709:3 0.08845714
4 *2709:4 0.08519557
5 *2709:5 0.1788752
6 *2709:6 0.1803577
7 *2709:7 0.01790858
8 *2709:8 0.01676504

*RES
0 *137:Q *2709:8 1
1 *2709:4 *159:A4 1
2 *2709:4 *2709:3 2.666071
3 *2709:5 *2709:4 0.5
4 *2709:7 *2709:6 0.5
5 *2709:6 *2709:5 9.723214
6 *2709:8 *2709:7 0.4946429
7 *2709:3 *214:A1 1

*END

*D_NET *2712 1.158412 //LENGTH 11.749 LUMPCC 0 DR

*CONN
*I *229:Q O *L 0 *C 9.408 34.488
*I *78:A3 I *L 0.539281 *C 7.128 39.048
*I *153:A1 I *L 0.549073 *C 5.611 41.204
*I *160:A1 I *L 0.598231 *C 6.976 41.024
*N *2712:4 *C 9.408 34.306
*N *2712:5 *C 6.976 41.012
*N *2712:6 *C 5.748 41.176
*N *2712:7 *C 5.760 41.163
*N *2712:8 *C 5.760 40.886
*N *2712:9 *C 5.774 40.872
*N *2712:10 *C 6.963 40.872
*N *2712:11 *C 6.976 40.846
*N *2712:12 *C 6.976 40.568
*N *2712:13 *C 7.128 40.568
*N *2712:14 *C 7.128 39.062
*N *2712:15 *C 7.142 39.048
*N *2712:16 *C 7.723 39.048
*N *2712:17 *C 7.736 39.035
*N *2712:18 *C 7.736 34.502
*N *2712:19 *C 7.750 34.488
*N *2712:20 *C 9.395 34.488
*N *2712:21 *C 9.408 34.476

*CAP
0 *229:Q 0.001
1 *78:A3 0.001
2 *153:A1 0.01178069
3 *160:A1 0.001
4 *2712:4 0.01119799
5 *2712:5 0.009379474
6 *2712:6 0.01018656
7 *2712:7 0.02193072
8 *2712:8 0.02174581
9 *2712:9 0.04488467
10 *2712:10 0.04488467
11 *2712:11 0.03454646
12 *2712:12 0.03092628
13 *2712:13 0.1023635
14 *2712:14 0.09075908
15 *2712:15 0.0284379
16 *2712:16 0.0284379
17 *2712:17 0.277498
18 *2712:18 0.277498
19 *2712:19 0.05122909
20 *2712:20 0.05122909
21 *2712:21 0.006496394

*RES
0 *229:Q *2712:21 1
1 *2712:14 *78:A3 1
2 *2712:14 *2712:13 2.690178
3 *2712:15 *2712:14 0.5
4 *2712:17 *2712:16 0.5
5 *2712:16 *2712:15 1.0375
6 *2712:18 *2712:17 8.094644
7 *2712:19 *2712:18 0.5
8 *2712:21 *2712:20 0.5
9 *2712:21 *2712:4 0.2825
10 *2712:20 *2712:19 2.9375
11 *2712:5 *160:A1 1
12 *2712:11 *2712:10 0.5
13 *2712:11 *2712:5 0.2758334
14 *2712:10 *2712:9 2.123214
15 *2712:8 *2712:7 0.4946429
16 *2712:9 *2712:8 0.5
17 *2712:6 *153:A1 0.2283333
18 *2712:7 *2712:6 1
19 *2712:12 *2712:11 0.4964286
20 *2712:13 *2712:12 0.2714286

*END

*D_NET *2716 0.633164 //LENGTH 8.406 LUMPCC 0 DR

*CONN
*I *227:Q O *L 0 *C 12.448 22.328
*I *297:A4 I *L 0.514778 *C 6.824 22.480
*I *145:A2 I *L 0.466516 *C 6.520 20.808
*N *2716:3 *C 12.448 22.146
*N *2716:4 *C 6.520 20.676
*N *2716:5 *C 6.520 20.796
*N *2716:6 *C 6.534 20.808
*N *2716:7 *C 6.811 20.808
*N *2716:8 *C 6.824 20.822
*N *2716:9 *C 6.824 22.468
*N *2716:10 *C 6.824 22.302
*N *2716:11 *C 6.838 22.328
*N *2716:12 *C 12.434 22.328
*N *2716:13 *C 12.448 22.316

*CAP
0 *227:Q 0.001
1 *297:A4 0.001
2 *145:A2 0.001
3 *2716:3 0.01328322
4 *2716:4 0.01087687
5 *2716:5 0.004825582
6 *2716:6 0.01131384
7 *2716:7 0.01279637
8 *2716:8 0.08183339
9 *2716:9 0.006223048
10 *2716:10 0.09097901
11 *2716:11 0.1947256
12 *2716:12 0.1947256
13 *2716:13 0.008581619

*RES
0 *227:Q *2716:13 1
1 *2716:9 *297:A4 1
2 *2716:10 *2716:9 0.2758334
3 *2716:10 *2716:8 2.64375
4 *2716:11 *2716:10 0.5
5 *2716:13 *2716:12 0.5
6 *2716:13 *2716:3 0.2825
7 *2716:12 *2716:11 9.994644
8 *2716:8 *2716:7 0.5
9 *2716:7 *2716:6 0.4946429
10 *2716:5 *145:A2 1
11 *2716:5 *2716:4 0.1991667
12 *2716:6 *2716:5 0.5

*END

*D_NET *2720 0.9108987 //LENGTH 11.153 LUMPCC 0 DR

*CONN
*I *225:Q O *L 0 *C 16.552 8.952
*I *203:A3 I *L 0.519105 *C 11.840 9.104
*I *209:A4 I *L 0.514778 *C 8.344 7.584
*I *139:A3 I *L 0.584801 *C 10.320 9.104
*N *2720:4 *C 10.320 9.091
*N *2720:5 *C 8.344 7.584
*N *2720:6 *C 8.344 7.724
*N *2720:7 *C 8.357 7.736
*N *2720:8 *C 10.306 7.736
*N *2720:9 *C 10.320 7.750
*N *2720:10 *C 10.320 8.648
*N *2720:11 *C 10.334 8.648
*N *2720:12 *C 11.840 9.091
*N *2720:13 *C 11.840 8.662
*N *2720:14 *C 11.840 8.648
*N *2720:15 *C 16.538 8.648
*N *2720:16 *C 16.552 8.662
*N *2720:17 *C 16.552 8.939

*CAP
0 *225:Q 0.001
1 *203:A3 0.001
2 *209:A4 0.001
3 *139:A3 0.001
4 *2720:4 0.0225089
5 *2720:5 0.009963157
6 *2720:6 0.01110669
7 *2720:7 0.0807972
8 *2720:8 0.0807972
9 *2720:9 0.04167672
10 *2720:10 0.06710818
11 *2720:11 0.06389274
12 *2720:12 0.03264283
13 *2720:13 0.03378636
14 *2720:14 0.251877
15 *2720:15 0.1862052
16 *2720:16 0.01283994
17 *2720:17 0.01169641

*RES
0 *225:Q *2720:17 1
1 *2720:16 *2720:15 0.5
2 *2720:15 *2720:14 8.390179
3 *2720:17 *2720:16 0.4946429
4 *2720:13 *2720:12 0.7660714
5 *2720:14 *2720:13 0.5
6 *2720:14 *2720:11 2.690179
7 *2720:12 *203:A3 1
8 *2720:4 *139:A3 1
9 *2720:10 *2720:9 1.604464
10 *2720:10 *2720:4 0.7901786
11 *2720:11 *2720:10 0.5
12 *2720:9 *2720:8 0.5
13 *2720:8 *2720:7 3.480358
14 *2720:6 *2720:5 0.2325
15 *2720:7 *2720:6 0.5
16 *2720:5 *209:A4 1

*END

*D_NET *2725 0.7053494 //LENGTH 8.625 LUMPCC 0 DR

*CONN
*I *327:Y O *L 0 *C 26.736 42.240
*I *340:D I *L 0.543569 *C 23.392 37.376
*N *2725:2 *C 23.392 37.390
*N *2725:3 *C 23.392 37.819
*N *2725:4 *C 23.405 37.832
*N *2725:5 *C 26.571 37.832
*N *2725:6 *C 26.584 37.846
*N *2725:7 *C 26.584 41.784
*N *2725:8 *C 26.736 41.784
*N *2725:9 *C 26.736 42.239

*CAP
0 *327:Y 0.001
1 *340:D 0.001
2 *2725:2 0.018924
3 *2725:3 0.02006753
4 *2725:4 0.1349989
5 *2725:5 0.1349989
6 *2725:6 0.165959
7 *2725:7 0.1750923
8 *2725:8 0.03179277
9 *2725:9 0.02151593

*RES
0 *327:Y *2725:9 1
1 *2725:2 *340:D 1
2 *2725:3 *2725:2 0.7660714
3 *2725:4 *2725:3 0.5
4 *2725:6 *2725:5 0.5
5 *2725:5 *2725:4 5.651786
6 *2725:9 *2725:8 0.8125
7 *2725:7 *2725:6 7.033036
8 *2725:8 *2725:7 0.2714286

*END

*D_NET *2729 0.9256223 //LENGTH 9.049 LUMPCC 0 DR

*CONN
*I *508:Y O *L 0 *C 38.744 11.536
*I *248:D I *L 0.543562 *C 34.640 16.096
*N *2729:2 *C 34.640 16.082
*N *2729:3 *C 34.640 13.830
*N *2729:4 *C 34.654 13.816
*N *2729:5 *C 38.427 13.816
*N *2729:6 *C 38.440 13.803
*N *2729:7 *C 38.440 11.550
*N *2729:8 *C 38.455 11.536

*CAP
0 *508:Y 0.02248222
1 *248:D 0.001
2 *2729:2 0.1249786
3 *2729:3 0.1261222
4 *2729:4 0.1528357
5 *2729:5 0.1528357
6 *2729:6 0.1621475
7 *2729:7 0.1623324
8 *2729:8 0.02088809

*RES
0 *508:Y *2729:8 0.578
1 *2729:2 *248:D 1
2 *2729:3 *2729:2 4.023214
3 *2729:4 *2729:3 0.5
4 *2729:6 *2729:5 0.5
5 *2729:5 *2729:4 6.7375
6 *2729:8 *2729:7 1
7 *2729:7 *2729:6 4.023214

*END

*D_NET *2732 0.3700761 //LENGTH 4.287 LUMPCC 0 DR

*CONN
*I *202:Y O *L 0 *C 44.824 14.576
*I *245:D I *L 0.543562 *C 41.784 13.968
*N *2732:2 *C 41.784 13.956
*N *2732:3 *C 41.784 13.816
*N *2732:4 *C 41.797 13.816
*N *2732:5 *C 44.811 13.816
*N *2732:6 *C 44.824 13.830
*N *2732:7 *C 44.824 14.562

*CAP
0 *202:Y 0.001
1 *245:D 0.001
2 *2732:2 0.01457738
3 *2732:3 0.01572092
4 *2732:4 0.1200525
5 *2732:5 0.1200525
6 *2732:6 0.04940811
7 *2732:7 0.04826458

*RES
0 *202:Y *2732:7 1
1 *2732:2 *245:D 1
2 *2732:3 *2732:2 0.2325
3 *2732:4 *2732:3 0.5
4 *2732:6 *2732:5 0.5
5 *2732:5 *2732:4 5.380357
6 *2732:7 *2732:6 1.308929

*END

*D_NET *2736 0.4360035 //LENGTH 5.321 LUMPCC 0 DR

*CONN
*I *277:Y O *L 0 *C 30.232 34.640
*I *237:D I *L 0.543562 *C 32.512 37.376
*N *2736:2 *C 32.512 37.363
*N *2736:3 *C 32.512 36.630
*N *2736:4 *C 32.498 36.616
*N *2736:5 *C 30.245 36.616
*N *2736:6 *C 30.232 36.602
*N *2736:7 *C 30.232 34.641

*CAP
0 *277:Y 0.001
1 *237:D 0.001
2 *2736:2 0.0345783
3 *2736:3 0.03572184
4 *2736:4 0.0793742
5 *2736:5 0.0793742
6 *2736:6 0.1030492
7 *2736:7 0.1019057

*RES
0 *277:Y *2736:7 1
1 *2736:2 *237:D 1
2 *2736:3 *2736:2 1.308929
3 *2736:4 *2736:3 0.5
4 *2736:6 *2736:5 0.5
5 *2736:5 *2736:4 4.023215
6 *2736:7 *2736:6 3.502679

*END

*D_NET *2740 0.2150115 //LENGTH 2.159 LUMPCC 0 DR

*CONN
*I *254:Y O *L 0 *C 44.368 16.096
*I *256:A2 I *L 0.578798 *C 43.912 17.464
*N *2740:2 *C 43.912 17.451
*N *2740:3 *C 43.912 16.262
*N *2740:4 *C 43.925 16.248
*N *2740:5 *C 44.355 16.248
*N *2740:6 *C 44.368 16.236
*N *2740:7 *C 44.368 16.096

*CAP
0 *254:Y 0.001
1 *256:A2 0.001
2 *2740:2 0.07854193
3 *2740:3 0.07968546
4 *2740:4 0.01857468
5 *2740:5 0.01857468
6 *2740:6 0.009389143
7 *2740:7 0.008245612

*RES
0 *254:Y *2740:7 1
1 *2740:2 *256:A2 1
2 *2740:3 *2740:2 2.123214
3 *2740:4 *2740:3 0.5
4 *2740:6 *2740:5 0.5
5 *2740:5 *2740:4 0.7660714
6 *2740:7 *2740:6 0.2325

*END

*D_NET *2744 0.1485364 //LENGTH 1.717 LUMPCC 0 DR

*CONN
*I *267:Y O *L 0 *C 44.520 19.440
*I *268:A2 I *L 0.466516 *C 44.672 20.808
*N *2744:2 *C 44.672 20.807
*N *2744:3 *C 44.672 19.592
*N *2744:4 *C 44.520 19.592
*N *2744:5 *C 44.520 19.454

*CAP
0 *267:Y 0.001
1 *268:A2 0.001
2 *2744:2 0.05494132
3 *2744:3 0.06437191
4 *2744:4 0.01839329
5 *2744:5 0.008829857

*RES
0 *267:Y *2744:5 1
1 *2744:2 *268:A2 1
2 *2744:5 *2744:4 0.2473214
3 *2744:4 *2744:3 0.2714286
4 *2744:3 *2744:2 2.169643

*END

*D_NET *2747 0.5114475 //LENGTH 6.205 LUMPCC 0 DR

*CONN
*I *275:Y O *L 0 *C 34.184 34.184
*I *276:A I *L 0.582888 *C 31.600 34.184
*I *279:A2 I *L 0.516516 *C 32.056 31.904
*N *2747:3 *C 32.056 31.918
*N *2747:4 *C 32.056 33.562
*N *2747:5 *C 32.043 33.576
*N *2747:6 *C 31.600 33.576
*N *2747:7 *C 31.600 34.171
*N *2747:8 *C 31.600 33.894
*N *2747:9 *C 31.600 33.880
*N *2747:10 *C 34.171 33.880
*N *2747:11 *C 34.184 33.894
*N *2747:12 *C 34.184 34.171

*CAP
0 *275:Y 0.001
1 *276:A 0.001
2 *279:A2 0.001
3 *2747:3 0.08754596
4 *2747:4 0.08868948
5 *2747:5 0.02038886
6 *2747:6 0.03242159
7 *2747:7 0.0140529
8 *2747:8 0.01519643
9 *2747:9 0.112485
10 *2747:10 0.1022313
11 *2747:11 0.01828976
12 *2747:12 0.01714623

*RES
0 *275:Y *2747:12 1
1 *2747:11 *2747:10 0.5
2 *2747:10 *2747:9 4.590179
3 *2747:12 *2747:11 0.4946429
4 *2747:4 *2747:3 2.9375
5 *2747:5 *2747:4 0.5
6 *2747:3 *279:A2 1
7 *2747:8 *2747:7 0.4946429
8 *2747:9 *2747:8 0.5
9 *2747:9 *2747:6 0.5428572
10 *2747:7 *276:A 1
11 *2747:6 *2747:5 0.7901787

*END

*D_NET *2750 0.5683979 //LENGTH 6.296 LUMPCC 0 DR

*CONN
*I *272:Y O *L 0 *C 31.296 32.208
*I *279:A4 I *L 0.513828 *C 32.208 32.512
*I *273:A I *L 0.582888 *C 32.512 30.840
*I *283:A5 I *L 0.542358 *C 34.488 32.816
*N *2750:4 *C 34.488 32.803
*N *2750:5 *C 34.488 32.373
*N *2750:6 *C 34.474 32.360
*N *2750:7 *C 32.512 30.854
*N *2750:8 *C 32.512 32.208
*N *2750:9 *C 32.664 32.208
*N *2750:10 *C 32.664 32.346
*N *2750:11 *C 32.664 32.360
*N *2750:12 *C 32.208 32.500
*N *2750:13 *C 32.208 32.360
*N *2750:14 *C 32.208 32.360
*N *2750:15 *C 31.309 32.360
*N *2750:16 *C 31.296 32.348
*N *2750:17 *C 31.296 32.208

*CAP
0 *272:Y 0.001
1 *279:A4 0.001
2 *273:A 0.001
3 *283:A5 0.001
4 *2750:4 0.02178007
5 *2750:5 0.0229236
6 *2750:6 0.07442869
7 *2750:7 0.08072026
8 *2750:8 0.09148788
9 *2750:9 0.02300048
10 *2750:10 0.01337639
11 *2750:11 0.09526715
12 *2750:12 0.01641218
13 *2750:13 0.01755571
14 *2750:14 0.05625239
15 *2750:15 0.03541394
16 *2750:16 0.008461365
17 *2750:17 0.007317834

*RES
0 *272:Y *2750:17 1
1 *2750:5 *2750:4 0.7660715
2 *2750:6 *2750:5 0.5
3 *2750:4 *283:A5 1
4 *2750:10 *2750:9 0.2473214
5 *2750:11 *2750:10 0.5
6 *2750:11 *2750:6 3.233036
7 *2750:7 *273:A 1
8 *2750:13 *2750:12 0.2325
9 *2750:14 *2750:13 0.5
10 *2750:14 *2750:11 0.8142858
11 *2750:12 *279:A4 1
12 *2750:16 *2750:15 0.5
13 *2750:15 *2750:14 1.604464
14 *2750:17 *2750:16 0.2325
15 *2750:8 *2750:7 2.41875
16 *2750:9 *2750:8 0.2714286

*END

*D_NET *2756 0.5221318 //LENGTH 4.975 LUMPCC 0 DR

*CONN
*I *269:Y O *L 0 *C 40.720 22.784
*I *287:A1 I *L 0.545966 *C 41.784 24.152
*I *270:A1 I *L 0.549073 *C 43.304 24.456
*N *2756:3 *C 43.304 24.455
*N *2756:4 *C 43.304 23.861
*N *2756:5 *C 43.291 23.848
*N *2756:6 *C 41.784 24.139
*N *2756:7 *C 41.784 23.861
*N *2756:8 *C 41.784 23.848
*N *2756:9 *C 40.733 23.848
*N *2756:10 *C 40.720 23.835
*N *2756:11 *C 40.720 22.797

*CAP
0 *269:Y 0.001
1 *287:A1 0.001
2 *270:A1 0.001
3 *2756:3 0.0299241
4 *2756:4 0.03106763
5 *2756:5 0.07680915
6 *2756:6 0.01957548
7 *2756:7 0.02071902
8 *2756:8 0.1489884
9 *2756:9 0.07040025
10 *2756:10 0.06139563
11 *2756:11 0.0602521

*RES
0 *269:Y *2756:11 1
1 *2756:4 *2756:3 1.059821
2 *2756:5 *2756:4 0.5
3 *2756:3 *270:A1 1
4 *2756:7 *2756:6 0.4946429
5 *2756:8 *2756:7 0.5
6 *2756:8 *2756:5 2.690179
7 *2756:6 *287:A1 1
8 *2756:10 *2756:9 0.5
9 *2756:9 *2756:8 1.875893
10 *2756:11 *2756:10 1.851786

*END

*D_NET *2760 0.2165211 //LENGTH 2.331 LUMPCC 0 DR

*CONN
*I *289:Y O *L 0 *C 39.534 20.960
*I *293:A2 I *L 0.55521 *C 40.568 20.960
*N *2760:2 *C 40.568 20.947
*N *2760:3 *C 40.568 20.518
*N *2760:4 *C 40.555 20.504
*N *2760:5 *C 39.974 20.504
*N *2760:6 *C 39.960 20.518
*N *2760:7 *C 39.960 20.947
*N *2760:8 *C 39.945 20.960

*CAP
0 *289:Y 0.02901426
1 *293:A2 0.001
2 *2760:2 0.02456375
3 *2760:3 0.02570728
4 *2760:4 0.0247484
5 *2760:5 0.0247484
6 *2760:6 0.02956699
7 *2760:7 0.0297519
8 *2760:8 0.02742013

*RES
0 *289:Y *2760:8 0.8220001
1 *2760:2 *293:A2 1
2 *2760:3 *2760:2 0.7660715
3 *2760:4 *2760:3 0.5
4 *2760:6 *2760:5 0.5
5 *2760:5 *2760:4 1.0375
6 *2760:8 *2760:7 1
7 *2760:7 *2760:6 0.7660715

*END

*D_NET *2765 0.5932163 //LENGTH 7.066 LUMPCC 0 DR

*CONN
*I *296:Y O *L 0 *C 45.888 17.464
*I *299:A2 I *L 0.466516 *C 46.800 14.120
*I *201:A I *L 0.582888 *C 47.408 12.600
*N *2765:3 *C 47.408 12.418
*N *2765:4 *C 47.408 12.588
*N *2765:5 *C 47.395 12.600
*N *2765:6 *C 46.814 12.600
*N *2765:7 *C 46.800 12.614
*N *2765:8 *C 46.800 14.120
*N *2765:9 *C 46.800 16.538
*N *2765:10 *C 46.787 16.552
*N *2765:11 *C 45.902 16.552
*N *2765:12 *C 45.888 16.566
*N *2765:13 *C 45.888 17.451

*CAP
0 *296:Y 0.001
1 *299:A2 0.001
2 *201:A 0.001
3 *2765:3 0.009768999
4 *2765:4 0.005067399
5 *2765:5 0.02007988
6 *2765:6 0.02007988
7 *2765:7 0.06736086
8 *2765:8 0.1815122
9 *2765:9 0.113383
10 *2765:10 0.03783672
11 *2765:11 0.03783672
12 *2765:12 0.04921711
13 *2765:13 0.04807357

*RES
0 *296:Y *2765:13 1
1 *2765:8 *299:A2 1
2 *2765:8 *2765:7 2.690179
3 *2765:7 *2765:6 0.5
4 *2765:6 *2765:5 1.0375
5 *2765:4 *201:A 1
6 *2765:4 *2765:3 0.2825
7 *2765:5 *2765:4 0.5
8 *2765:9 *2765:8 4.31875
9 *2765:10 *2765:9 0.5
10 *2765:12 *2765:11 0.5
11 *2765:11 *2765:10 1.580357
12 *2765:13 *2765:12 1.580357

*END

*D_NET *2767 0.304134 //LENGTH 3.287 LUMPCC 0 DR

*CONN
*I *299:Y O *L 0 *C 47.074 14.272
*I *300:A6 I *L 0.639573 *C 46.192 12.144
*N *2767:2 *C 46.192 12.158
*N *2767:3 *C 46.192 12.600
*N *2767:4 *C 46.344 12.600
*N *2767:5 *C 46.344 14.259
*N *2767:6 *C 46.359 14.272

*CAP
0 *299:Y 0.04082006
1 *300:A6 0.001
2 *2767:2 0.02083405
3 *2767:3 0.03088007
4 *2767:4 0.0900457
5 *2767:5 0.08132812
6 *2767:6 0.03922594

*RES
0 *299:Y *2767:6 1.43
1 *2767:2 *300:A6 1
2 *2767:6 *2767:5 1
3 *2767:5 *2767:4 2.961607
4 *2767:3 *2767:2 0.7901786
5 *2767:4 *2767:3 0.2714286

*END

*D_NET *2770 0.9068826 //LENGTH 11.308 LUMPCC 0 DR

*CONN
*I *303:Y O *L 0 *C 47.408 9.864
*I *321:A5 I *L 0.583269 *C 41.632 10.776
*I *508:A1 I *L 0.520769 *C 39.960 10.928
*N *2770:3 *C 39.960 10.915
*N *2770:4 *C 39.960 9.878
*N *2770:5 *C 39.974 9.864
*N *2770:6 *C 41.632 10.775
*N *2770:7 *C 41.632 9.878
*N *2770:8 *C 41.632 9.865
*N *2770:9 *C 41.632 10.168
*N *2770:10 *C 43.456 10.168
*N *2770:11 *C 43.456 10.472
*N *2770:12 *C 47.395 10.472
*N *2770:13 *C 47.408 10.459
*N *2770:14 *C 47.408 9.878

*CAP
0 *303:Y 0.001
1 *321:A5 0.001
2 *508:A1 0.001
3 *2770:3 0.05036447
4 *2770:4 0.05150801
5 *2770:5 0.07788342
6 *2770:6 0.0599641
7 *2770:7 0.06110763
8 *2770:8 0.08872788
9 *2770:9 0.08678224
10 *2770:10 0.08660956
11 *2770:11 0.155497
12 *2770:12 0.1430462
13 *2770:13 0.02143325
14 *2770:14 0.02095888

*RES
0 *303:Y *2770:14 1
1 *2770:13 *2770:12 0.5
2 *2770:12 *2770:11 7.033037
3 *2770:14 *2770:13 1.0375
4 *2770:7 *2770:6 1.602679
5 *2770:8 *2770:7 0.5
6 *2770:8 *2770:5 2.961607
7 *2770:6 *321:A5 1
8 *2770:4 *2770:3 1.851786
9 *2770:5 *2770:4 0.5
10 *2770:3 *508:A1 1
11 *2770:9 *2770:8 0.5410715
12 *2770:10 *2770:9 3.257143
13 *2770:11 *2770:10 0.5428572

*END

*D_NET *2774 1.116864 //LENGTH 13.018 LUMPCC 0 DR

*CONN
*I *258:Y O *L 0 *C 32.208 34.184
*I *275:A4 I *L 0.565045 *C 34.792 34.184
*I *282:A1 I *L 0.549073 *C 35.552 34.488
*I *315:A2 I *L 0.577157 *C 35.400 42.544
*I *259:A I *L 0.582888 *C 35.552 40.872
*N *2774:5 *C 35.552 40.858
*N *2774:6 *C 35.400 42.531
*N *2774:7 *C 35.400 40.568
*N *2774:8 *C 35.552 40.568
*N *2774:9 *C 35.552 34.502
*N *2774:10 *C 35.538 34.488
*N *2774:11 *C 34.792 34.198
*N *2774:12 *C 34.792 34.474
*N *2774:13 *C 34.792 34.488
*N *2774:14 *C 32.221 34.488
*N *2774:15 *C 32.208 34.474
*N *2774:16 *C 32.208 34.198

*CAP
0 *258:Y 0.001
1 *275:A4 0.001
2 *282:A1 0.001
3 *315:A2 0.001
4 *259:A 0.001
5 *2774:5 0.01508879
6 *2774:6 0.1060832
7 *2774:7 0.1160957
8 *2774:8 0.277763
9 *2774:9 0.2464776
10 *2774:10 0.03020765
11 *2774:11 0.01986023
12 *2774:12 0.02100376
13 *2774:13 0.1363807
14 *2774:14 0.1029114
15 *2774:15 0.02056771
16 *2774:16 0.01942418

*RES
0 *258:Y *2774:16 1
1 *2774:5 *259:A 1
2 *2774:9 *282:A1 1
3 *2774:9 *2774:8 10.83304
4 *2774:6 *315:A2 1
5 *2774:10 *2774:9 0.5
6 *2774:12 *2774:11 0.4946429
7 *2774:13 *2774:12 0.5
8 *2774:13 *2774:10 1.333036
9 *2774:11 *275:A4 1
10 *2774:15 *2774:14 0.5
11 *2774:14 *2774:13 4.590179
12 *2774:16 *2774:15 0.4946429
13 *2774:7 *2774:6 3.504464
14 *2774:8 *2774:7 0.2714286
15 *2774:8 *2774:5 0.5187501

*END

*D_NET *2780 0.492994 //LENGTH 5.315 LUMPCC 0 DR

*CONN
*I *313:Y O *L 0 *C 30.992 44.672
*I *210:A6 I *L 0.558565 *C 30.232 43.000
*I *316:A2 I *L 0.501039 *C 29.624 44.520
*I *322:A5 I *L 0.542358 *C 29.776 46.192
*N *2780:4 *C 29.776 46.178
*N *2780:5 *C 29.776 44.520
*N *2780:6 *C 29.625 44.520
*N *2780:7 *C 29.638 44.520
*N *2780:8 *C 30.232 43.001
*N *2780:9 *C 30.232 44.507
*N *2780:10 *C 30.232 44.520
*N *2780:11 *C 30.979 44.520
*N *2780:12 *C 30.992 44.520
*N *2780:13 *C 30.992 44.660

*CAP
0 *313:Y 0.001
1 *210:A6 0.001
2 *316:A2 0.001
3 *322:A5 0.001
4 *2780:4 0.0926669
5 *2780:5 0.1031752
6 *2780:6 0.002884123
7 *2780:7 0.02525351
8 *2780:8 0.07762188
9 *2780:9 0.07876541
10 *2780:10 0.05551448
11 *2780:11 0.02848194
12 *2780:12 0.01288704
13 *2780:13 0.01174351

*RES
0 *313:Y *2780:13 1
1 *2780:12 *2780:11 0.5
2 *2780:11 *2780:10 1.333036
3 *2780:13 *2780:12 0.2325
4 *2780:9 *2780:8 2.688393
5 *2780:10 *2780:9 0.5
6 *2780:10 *2780:7 1.061607
7 *2780:8 *210:A6 1
8 *2780:4 *322:A5 1
9 *2780:6 *316:A2 1
10 *2780:6 *2780:5 0.2696429
11 *2780:7 *2780:6 0.5
12 *2780:5 *2780:4 2.961607

*END

*D_NET *2783 0.4458883 //LENGTH 5.466 LUMPCC 0 DR

*CONN
*I *322:Y O *L 0 *C 30.384 46.344
*I *326:A3 I *L 0.474994 *C 27.678 45.888
*I *323:A I *L 0.582888 *C 26.280 46.040
*N *2783:3 *C 26.280 45.858
*N *2783:4 *C 26.280 46.028
*N *2783:5 *C 26.294 46.040
*N *2783:6 *C 27.937 45.888
*N *2783:7 *C 27.952 45.888
*N *2783:8 *C 27.952 46.028
*N *2783:9 *C 27.952 46.040
*N *2783:10 *C 30.370 46.040
*N *2783:11 *C 30.384 46.053
*N *2783:12 *C 30.384 46.331

*CAP
0 *322:Y 0.001
1 *326:A3 0.02062047
2 *323:A 0.001
3 *2783:3 0.01170746
4 *2783:4 0.007005861
5 *2783:5 0.06459989
6 *2783:6 0.01902634
7 *2783:7 0.0126567
8 *2783:8 0.01247179
9 *2783:9 0.1659088
10 *2783:10 0.09952983
11 *2783:11 0.01575233
12 *2783:12 0.0146088

*RES
0 *322:Y *2783:12 1
1 *2783:11 *2783:10 0.5
2 *2783:10 *2783:9 4.31875
3 *2783:12 *2783:11 0.4946429
4 *2783:8 *2783:7 0.2325
5 *2783:9 *2783:8 0.5
6 *2783:9 *2783:5 2.961607
7 *2783:6 *326:A3 0.5180001
8 *2783:7 *2783:6 1
9 *2783:4 *323:A 1
10 *2783:4 *2783:3 0.2825
11 *2783:5 *2783:4 0.5

*END

*D_NET *2786 0.8997459 //LENGTH 11.364 LUMPCC 0 DR

*CONN
*I *260:Y O *L 0 *C 26.128 40.568
*I *327:A3 I *L 0.507548 *C 27.648 43.304
*I *261:A3 I *L 0.456834 *C 33.576 42.696
*N *2786:3 *C 33.576 42.710
*N *2786:4 *C 33.576 43.291
*N *2786:5 *C 33.562 43.304
*N *2786:6 *C 27.648 43.122
*N *2786:7 *C 27.648 43.291
*N *2786:8 *C 27.648 43.304
*N *2786:9 *C 26.142 43.304
*N *2786:10 *C 26.128 43.291
*N *2786:11 *C 26.128 40.582

*CAP
0 *260:Y 0.001
1 *327:A3 0.001
2 *261:A3 0.001
3 *2786:3 0.02959517
4 *2786:4 0.03073871
5 *2786:5 0.2310864
6 *2786:6 0.01229595
7 *2786:7 0.007594355
8 *2786:8 0.2983389
9 *2786:9 0.06547347
10 *2786:10 0.1113832
11 *2786:11 0.1102397

*RES
0 *260:Y *2786:11 1
1 *2786:4 *2786:3 1.0375
2 *2786:5 *2786:4 0.5
3 *2786:3 *261:A3 1
4 *2786:7 *327:A3 1
5 *2786:7 *2786:6 0.2825
6 *2786:8 *2786:7 0.5
7 *2786:8 *2786:5 10.56161
8 *2786:10 *2786:9 0.5
9 *2786:9 *2786:8 2.690179
10 *2786:11 *2786:10 4.837501

*END

*D_NET *2788 0.7058472 //LENGTH 8.775 LUMPCC 0 DR

*CONN
*I *290:Y O *L 0 *C 46.648 24.000
*I *291:A3 I *L 0.465144 *C 43.000 22.480
*I *328:A6 I *L 0.609639 *C 39.960 23.696
*N *2788:3 *C 39.960 23.695
*N *2788:4 *C 39.960 23.558
*N *2788:5 *C 39.974 23.544
*N *2788:6 *C 43.000 22.494
*N *2788:7 *C 43.000 23.530
*N *2788:8 *C 43.000 23.544
*N *2788:9 *C 46.635 23.544
*N *2788:10 *C 46.648 23.558
*N *2788:11 *C 46.648 23.986

*CAP
0 *290:Y 0.001
1 *291:A3 0.001
2 *328:A6 0.001
3 *2788:3 0.01065324
4 *2788:4 0.01179678
5 *2788:5 0.1226137
6 *2788:6 0.06325853
7 *2788:7 0.06440205
8 *2788:8 0.254245
9 *2788:9 0.1298523
10 *2788:10 0.02358464
11 *2788:11 0.02244111

*RES
0 *290:Y *2788:11 1
1 *2788:10 *2788:9 0.5
2 *2788:9 *2788:8 6.490179
3 *2788:11 *2788:10 0.7660714
4 *2788:7 *2788:6 1.851786
5 *2788:8 *2788:7 0.5
6 *2788:8 *2788:5 5.404465
7 *2788:6 *291:A3 1
8 *2788:4 *2788:3 0.2455357
9 *2788:5 *2788:4 0.5
10 *2788:3 *328:A6 1

*END

*D_NET *2792 0.5885008 //LENGTH 6.626 LUMPCC 0 DR

*CONN
*I *291:Y O *L 0 *C 43.608 22.936
*I *292:A1 I *L 0.520769 *C 43.000 20.960
*I *292:A3 I *L 0.518192 *C 42.544 20.200
*I *331:A I *L 0.582888 *C 43.912 19.288
*N *2792:4 *C 43.912 19.302
*N *2792:5 *C 43.912 20.808
*N *2792:6 *C 42.544 20.213
*N *2792:7 *C 42.544 20.794
*N *2792:8 *C 42.558 20.808
*N *2792:9 *C 43.000 20.948
*N *2792:10 *C 43.000 20.808
*N *2792:11 *C 43.000 20.808
*N *2792:12 *C 43.747 20.808
*N *2792:13 *C 43.760 20.808
*N *2792:14 *C 43.760 22.024
*N *2792:15 *C 43.608 22.024
*N *2792:16 *C 43.608 22.922

*CAP
0 *291:Y 0.001
1 *292:A1 0.001
2 *292:A3 0.001
3 *331:A 0.001
4 *2792:4 0.05750591
5 *2792:5 0.06781076
6 *2792:6 0.04762587
7 *2792:7 0.0487694
8 *2792:8 0.02347406
9 *2792:9 0.008734866
10 *2792:10 0.009878398
11 *2792:11 0.06353334
12 *2792:12 0.03828024
13 *2792:13 0.06205386
14 *2792:14 0.06376714
15 *2792:15 0.05165303
16 *2792:16 0.04141394

*RES
0 *291:Y *2792:16 1
1 *2792:4 *331:A 1
2 *2792:16 *2792:15 1.604464
3 *2792:13 *2792:12 0.5
4 *2792:13 *2792:5 0.2714286
5 *2792:12 *2792:11 1.333036
6 *2792:10 *2792:9 0.2325
7 *2792:11 *2792:10 0.5
8 *2792:11 *2792:8 0.7901786
9 *2792:9 *292:A1 1
10 *2792:7 *2792:6 1.0375
11 *2792:8 *2792:7 0.5
12 *2792:6 *292:A3 1
13 *2792:15 *2792:14 0.2714286
14 *2792:14 *2792:13 2.171429
15 *2792:5 *2792:4 2.690179

*END

*D_NET *2798 1.554477 //LENGTH 18.303 LUMPCC 0 DR

*CONN
*I *246:QN O *L 0 *C 38.447 16.872
*I *302:A2 I *L 0.538095 *C 46.252 16.096
*I *253:A4 I *L 0.565045 *C 44.064 14.120
*I *300:A5 I *L 0.551519 *C 46.040 12.752
*N *2798:4 *C 46.040 12.766
*N *2798:5 *C 46.040 13.208
*N *2798:6 *C 45.889 13.208
*N *2798:7 *C 45.875 13.208
*N *2798:8 *C 44.064 14.107
*N *2798:9 *C 44.064 13.222
*N *2798:10 *C 44.078 13.208
*N *2798:11 *C 45.432 13.208
*N *2798:12 *C 45.432 13.222
*N *2798:13 *C 46.055 16.096
*N *2798:14 *C 46.040 16.082
*N *2798:15 *C 46.040 15.640
*N *2798:16 *C 45.889 15.640
*N *2798:17 *C 45.875 15.640
*N *2798:18 *C 45.446 15.640
*N *2798:19 *C 45.432 15.640
*N *2798:20 *C 45.432 17.755
*N *2798:21 *C 45.419 17.768
*N *2798:22 *C 38.744 17.768
*N *2798:23 *C 38.744 17.160
*N *2798:24 *C 38.454 17.160
*N *2798:25 *C 38.440 17.146
*N *2798:26 *C 38.440 16.870
*N *2798:27 *C 38.440 16.856

*CAP
0 *246:QN 0.008714889
1 *302:A2 0.01800644
2 *253:A4 0.001
3 *300:A5 0.001
4 *2798:4 0.02649049
5 *2798:5 0.03711839
6 *2798:6 0.0059263
7 *2798:7 0.02126587
8 *2798:8 0.05260526
9 *2798:9 0.0537488
10 *2798:10 0.06300388
11 *2798:11 0.08604889
12 *2798:12 0.09287714
13 *2798:13 0.01641232
14 *2798:14 0.02945602
15 *2798:15 0.03919169
16 *2798:16 0.006362509
17 *2798:17 0.02116697
18 *2798:18 0.02116707
19 *2798:19 0.1745253
20 *2798:20 0.07986923
21 *2798:21 0.289647
22 *2798:22 0.3137822
23 *2798:23 0.03601857
24 *2798:24 0.01188334
25 *2798:25 0.01994121
26 *2798:26 0.02012611
27 *2798:27 0.007120762

*RES
0 *246:QN *2798:27 0.09166668
1 *2798:6 *2798:5 0.2696429
2 *2798:7 *2798:6 0.5
3 *2798:4 *300:A5 1
4 *2798:18 *2798:17 0.7660714
5 *2798:19 *2798:18 0.5
6 *2798:19 *2798:12 4.31875
7 *2798:16 *2798:15 0.2696429
8 *2798:17 *2798:16 0.5
9 *2798:13 *302:A2 0.3940001
10 *2798:14 *2798:13 1
11 *2798:11 *2798:10 2.41875
12 *2798:11 *2798:7 0.7901787
13 *2798:12 *2798:11 0.5
14 *2798:9 *2798:8 1.580357
15 *2798:10 *2798:9 0.5
16 *2798:8 *253:A4 1
17 *2798:21 *2798:20 0.5
18 *2798:20 *2798:19 3.775893
19 *2798:25 *2798:24 0.5
20 *2798:24 *2798:23 0.5187501
21 *2798:27 *2798:26 1
22 *2798:26 *2798:25 0.4946429
23 *2798:5 *2798:4 0.7901787
24 *2798:15 *2798:14 0.7901787
25 *2798:23 *2798:22 1.085714
26 *2798:22 *2798:21 11.91875

*END

*D_NET *2802 1.174174 //LENGTH 12.084 LUMPCC 0 DR

*CONN
*I *241:QN O *L 0 *C 28.408 38.896
*I *261:A1 I *L 0.545966 *C 33.272 42.696
*I *210:A1 I *L 0.496377 *C 31.144 42.544
*I *210:A3 I *L 0.498109 *C 30.688 43.304
*N *2802:4 *C 30.688 43.291
*N *2802:5 *C 31.144 42.558
*N *2802:6 *C 31.144 42.999
*N *2802:7 *C 31.143 43.000
*N *2802:8 *C 30.702 43.000
*N *2802:9 *C 30.688 43.014
*N *2802:10 *C 30.536 43.000
*N *2802:11 *C 33.272 42.683
*N *2802:12 *C 33.272 41.797
*N *2802:13 *C 33.259 41.784
*N *2802:14 *C 30.550 41.784
*N *2802:15 *C 30.536 41.784
*N *2802:16 *C 30.536 39.669
*N *2802:17 *C 30.523 39.656
*N *2802:18 *C 28.422 39.656
*N *2802:19 *C 28.408 39.643
*N *2802:20 *C 28.408 38.897

*CAP
0 *241:QN 0.001
1 *261:A1 0.001
2 *210:A1 0.001
3 *210:A3 0.001
4 *2802:4 0.02272801
5 *2802:5 0.0261436
6 *2802:6 0.02728713
7 *2802:7 0.01996114
8 *2802:8 0.01996114
9 *2802:9 0.03143653
10 *2802:10 0.09080226
11 *2802:11 0.05264112
12 *2802:12 0.05378465
13 *2802:13 0.1332617
14 *2802:14 0.1332617
15 *2802:15 0.1977088
16 *2802:16 0.1144716
17 *2802:17 0.08470244
18 *2802:18 0.08470244
19 *2802:19 0.03923154
20 *2802:20 0.03808801

*RES
0 *241:QN *2802:20 1
1 *2802:4 *210:A3 1
2 *2802:9 *2802:8 0.5
3 *2802:9 *2802:4 0.4946429
4 *2802:8 *2802:7 0.7883929
5 *2802:6 *2802:5 0.7883929
6 *2802:7 *2802:6 0.5
7 *2802:5 *210:A1 1
8 *2802:15 *2802:14 0.5
9 *2802:15 *2802:10 2.171429
10 *2802:14 *2802:13 4.837501
11 *2802:12 *2802:11 1.580357
12 *2802:13 *2802:12 0.5
13 *2802:11 *261:A1 1
14 *2802:16 *2802:15 3.775893
15 *2802:17 *2802:16 0.5
16 *2802:19 *2802:18 0.5
17 *2802:18 *2802:17 3.751786
18 *2802:20 *2802:19 1.33125
19 *2802:10 *2802:9 0.2714286

*END

*D_NET *2806 0.9526967 //LENGTH 13.791 LUMPCC 0 DR

*CONN
*I *245:QN O *L 0 *C 37.984 14.576
*I *296:A3 I *L 0.584801 *C 45.432 17.616
*I *302:A4 I *L 0.554348 *C 46.192 15.640
*N *2806:3 *C 38.136 14.546
*N *2806:4 *C 46.192 15.654
*N *2806:5 *C 46.192 16.856
*N *2806:6 *C 46.041 16.856
*N *2806:7 *C 46.027 16.856
*N *2806:8 *C 45.432 17.602
*N *2806:9 *C 45.432 16.870
*N *2806:10 *C 45.446 16.856
*N *2806:11 *C 45.736 16.856
*N *2806:12 *C 45.736 16.843
*N *2806:13 *C 45.736 14.742
*N *2806:14 *C 45.723 14.728
*N *2806:15 *C 38.150 14.728
*N *2806:16 *C 38.136 14.716
*N *2806:17 *C 38.123 14.728
*N *2806:18 *C 37.984 14.728
*N *2806:19 *C 37.984 14.715
*N *2806:20 *C 37.984 14.577

*CAP
0 *245:QN 0.001
1 *296:A3 0.001
2 *302:A4 0.001
3 *2806:3 0.009504783
4 *2806:4 0.07932781
5 *2806:5 0.08974488
6 *2806:6 0.005715474
7 *2806:7 0.0128788
8 *2806:8 0.04000368
9 *2806:9 0.04114721
10 *2806:10 0.0128788
11 *2806:11 0.02753674
12 *2806:12 0.08466964
13 *2806:13 0.08466979
14 *2806:14 0.2095372
15 *2806:15 0.2095372
16 *2806:16 0.005947063
17 *2806:17 0.01007812
18 *2806:18 0.01007802
19 *2806:19 0.008792494
20 *2806:20 0.007648963

*RES
0 *245:QN *2806:20 1
1 *2806:6 *2806:5 0.2696429
2 *2806:7 *2806:6 0.5
3 *2806:4 *302:A4 1
4 *2806:9 *2806:8 1.308929
5 *2806:10 *2806:9 0.5
6 *2806:8 *296:A3 1
7 *2806:11 *2806:10 0.51875
8 *2806:11 *2806:7 0.51875
9 *2806:12 *2806:11 0.5
10 *2806:13 *2806:12 3.751786
11 *2806:14 *2806:13 0.5
12 *2806:16 *2806:15 0.5
13 *2806:16 *2806:3 0.2825
14 *2806:15 *2806:14 13.52322
15 *2806:17 *2806:16 0.5
16 *2806:19 *2806:18 0.5
17 *2806:18 *2806:17 0.2325
18 *2806:20 *2806:19 0.2455357
19 *2806:5 *2806:4 2.147322

*END

*D_NET *2812 0.501332 //LENGTH 6.410 LUMPCC 0 DR

*CONN
*I *356:Y O *L 0 *C 27.344 11.232
*I *364:D I *L 0.543569 *C 26.432 6.064
*N *2812:2 *C 26.432 6.078
*N *2812:3 *C 26.432 7.419
*N *2812:4 *C 26.446 7.432
*N *2812:5 *C 27.331 7.432
*N *2812:6 *C 27.344 7.446
*N *2812:7 *C 27.344 11.219

*CAP
0 *356:Y 0.001
1 *364:D 0.001
2 *2812:2 0.05218581
3 *2812:3 0.05332935
4 *2812:4 0.03133189
5 *2812:5 0.03133189
6 *2812:6 0.1661483
7 *2812:7 0.1650048

*RES
0 *356:Y *2812:7 1
1 *2812:2 *364:D 1
2 *2812:3 *2812:2 2.394643
3 *2812:4 *2812:3 0.5
4 *2812:6 *2812:5 0.5
5 *2812:5 *2812:4 1.580357
6 *2812:7 *2812:6 6.7375

*END

*D_NET *2816 0.4760757 //LENGTH 6.263 LUMPCC 0 DR

*CONN
*I *352:Y O *L 0 *C 19.744 31.296
*I *368:D I *L 0.543569 *C 14.424 30.688
*N *2816:2 *C 14.424 30.702
*N *2816:3 *C 14.424 31.131
*N *2816:4 *C 14.438 31.144
*N *2816:5 *C 19.730 31.144
*N *2816:6 *C 19.744 31.144
*N *2816:7 *C 19.744 31.284

*CAP
0 *352:Y 0.001
1 *368:D 0.001
2 *2816:2 0.01879063
3 *2816:3 0.01993416
4 *2816:4 0.2048509
5 *2816:5 0.2048509
6 *2816:6 0.01339639
7 *2816:7 0.01225286

*RES
0 *352:Y *2816:7 1
1 *2816:2 *368:D 1
2 *2816:3 *2816:2 0.7660714
3 *2816:4 *2816:3 0.5
4 *2816:6 *2816:5 0.5
5 *2816:5 *2816:4 9.451787
6 *2816:7 *2816:6 0.2325

*END

*D_NET *2820 0.5276081 //LENGTH 5.655 LUMPCC 0 DR

*CONN
*I *348:Y O *L 0 *C 15.184 42.240
*I *360:D I *L 0.543569 *C 17.768 39.504
*N *2820:2 *C 17.768 39.504
*N *2820:3 *C 17.768 39.644
*N *2820:4 *C 17.755 39.656
*N *2820:5 *C 15.198 39.656
*N *2820:6 *C 15.184 39.669
*N *2820:7 *C 15.184 42.227

*CAP
0 *348:Y 0.001
1 *360:D 0.001
2 *2820:2 0.01005831
3 *2820:3 0.01120184
4 *2820:4 0.1125185
5 *2820:5 0.1125185
6 *2820:6 0.1402272
7 *2820:7 0.1390837

*RES
0 *348:Y *2820:7 1
1 *2820:2 *360:D 1
2 *2820:3 *2820:2 0.2325
3 *2820:4 *2820:3 0.5
4 *2820:6 *2820:5 0.5
5 *2820:5 *2820:4 4.566072
6 *2820:7 *2820:6 4.566072

*END

*D_NET *2824 0.6121437 //LENGTH 7.479 LUMPCC 0 DR

*CONN
*I *344:Y O *L 0 *C 34.336 5.456
*I *372:D I *L 0.543569 *C 32.360 10.624
*N *2824:2 *C 32.360 10.612
*N *2824:3 *C 32.360 10.472
*N *2824:4 *C 32.373 10.472
*N *2824:5 *C 34.323 10.472
*N *2824:6 *C 34.336 10.459
*N *2824:7 *C 34.336 5.470

*CAP
0 *344:Y 0.001
1 *372:D 0.001
2 *2824:2 0.008331574
3 *2824:3 0.009475105
4 *2824:4 0.08338274
5 *2824:5 0.08338274
6 *2824:6 0.2133575
7 *2824:7 0.212214

*RES
0 *344:Y *2824:7 1
1 *2824:2 *372:D 1
2 *2824:3 *2824:2 0.2325
3 *2824:4 *2824:3 0.5
4 *2824:6 *2824:5 0.5
5 *2824:5 *2824:4 3.480357
6 *2824:7 *2824:6 8.908929

*END

*D_NET *2828 0.1605485 //LENGTH 1.630 LUMPCC 0 DR

*CONN
*I *392:Y O *L 0 *C 18.224 12.144
*I *405:D I *L 0.543569 *C 18.224 10.624
*N *2828:2 *C 18.224 10.638
*N *2828:3 *C 18.224 12.131

*CAP
0 *392:Y 0.001
1 *405:D 0.001
2 *2828:2 0.07927427
3 *2828:3 0.07927427

*RES
0 *392:Y *2828:3 1
1 *2828:2 *405:D 1
2 *2828:3 *2828:2 2.666071

*END

*D_NET *2830 0.6255249 //LENGTH 7.175 LUMPCC 0 DR

*CONN
*I *390:Y O *L 0 *C 24.152 14.576
*I *409:D I *L 0.543569 *C 18.224 13.968
*N *2830:2 *C 18.224 13.956
*N *2830:3 *C 18.224 13.816
*N *2830:4 *C 18.238 13.816
*N *2830:5 *C 24.139 13.816
*N *2830:6 *C 24.152 13.830
*N *2830:7 *C 24.152 14.562

*CAP
0 *390:Y 0.001
1 *409:D 0.001
2 *2830:2 0.01054183
3 *2830:3 0.01168537
4 *2830:4 0.2397937
5 *2830:5 0.2397937
6 *2830:6 0.06142693
7 *2830:7 0.0602834

*RES
0 *390:Y *2830:7 1
1 *2830:2 *409:D 1
2 *2830:3 *2830:2 0.2325
3 *2830:4 *2830:3 0.5
4 *2830:6 *2830:5 0.5
5 *2830:5 *2830:4 10.5375
6 *2830:7 *2830:6 1.308929

*END

*D_NET *2832 0.6399894 //LENGTH 7.935 LUMPCC 0 DR

*CONN
*I *388:Y O *L 0 *C 18.224 21.264
*I *404:D I *L 0.543569 *C 12.448 19.440
*N *2832:2 *C 12.448 19.440
*N *2832:3 *C 12.448 19.579
*N *2832:4 *C 12.462 19.592
*N *2832:5 *C 18.210 19.592
*N *2832:6 *C 18.224 19.605
*N *2832:7 *C 18.224 21.251

*CAP
0 *388:Y 0.001
1 *404:D 0.001
2 *2832:2 0.007919195
3 *2832:3 0.009062726
4 *2832:4 0.1977536
5 *2832:5 0.1977536
6 *2832:6 0.1133219
7 *2832:7 0.1121784

*RES
0 *388:Y *2832:7 1
1 *2832:2 *404:D 1
2 *2832:3 *2832:2 0.2325
3 *2832:4 *2832:3 0.5
4 *2832:6 *2832:5 0.5
5 *2832:5 *2832:4 10.26607
6 *2832:7 *2832:6 2.9375

*END

*D_NET *2833 0.7279456 //LENGTH 9.340 LUMPCC 0 DR

*CONN
*I *387:Y O *L 0 *C 17.756 24.608
*I *396:D I *L 0.543569 *C 12.752 20.656
*N *2833:2 *C 12.752 20.669
*N *2833:3 *C 12.752 23.227
*N *2833:4 *C 12.766 23.240
*N *2833:5 *C 17.602 23.240
*N *2833:6 *C 17.616 23.254
*N *2833:7 *C 17.616 24.595
*N *2833:8 *C 17.629 24.608

*CAP
0 *387:Y 0.01344119
1 *396:D 0.001
2 *2833:2 0.1023186
3 *2833:3 0.1034621
4 *2833:4 0.1843895
5 *2833:5 0.1843895
6 *2833:6 0.06345639
7 *2833:7 0.06364129
8 *2833:8 0.01184706

*RES
0 *387:Y *2833:8 0.2116667
1 *2833:2 *396:D 1
2 *2833:3 *2833:2 4.566072
3 *2833:4 *2833:3 0.5
4 *2833:6 *2833:5 0.5
5 *2833:5 *2833:4 8.6375
6 *2833:8 *2833:7 1
7 *2833:7 *2833:6 2.394643

*END

*D_NET *2836 0.5985796 //LENGTH 5.238 LUMPCC 0 DR

*CONN
*I *384:Y O *L 0 *C 18.376 22.176
*I *403:D I *L 0.543569 *C 18.528 17.312
*N *2836:2 *C 18.528 17.326
*N *2836:3 *C 18.528 18.680
*N *2836:4 *C 18.376 18.680
*N *2836:5 *C 18.376 22.163

*CAP
0 *384:Y 0.001
1 *403:D 0.001
2 *2836:2 0.08414089
3 *2836:3 0.09433209
4 *2836:4 0.2141489
5 *2836:5 0.2039577

*RES
0 *384:Y *2836:5 1
1 *2836:2 *403:D 1
2 *2836:5 *2836:4 6.21875
3 *2836:4 *2836:3 0.2714286
4 *2836:3 *2836:2 2.41875

*END

*D_NET *2837 0.7249717 //LENGTH 8.234 LUMPCC 0 DR

*CONN
*I *383:Y O *L 0 *C 19.288 24.608
*I *395:D I *L 0.543569 *C 13.208 22.784
*N *2837:2 *C 13.208 22.797
*N *2837:3 *C 13.208 23.530
*N *2837:4 *C 13.222 23.544
*N *2837:5 *C 19.274 23.544
*N *2837:6 *C 19.288 23.558
*N *2837:7 *C 19.288 24.595

*CAP
0 *383:Y 0.001
1 *395:D 0.001
2 *2837:2 0.02851989
3 *2837:3 0.02966342
4 *2837:4 0.2570732
5 *2837:5 0.2570732
6 *2837:6 0.07589281
7 *2837:7 0.07474928

*RES
0 *383:Y *2837:7 1
1 *2837:2 *395:D 1
2 *2837:3 *2837:2 1.308929
3 *2837:4 *2837:3 0.5
4 *2837:6 *2837:5 0.5
5 *2837:5 *2837:4 10.80893
6 *2837:7 *2837:6 1.851786

*END

*D_NET *2839 0.4556994 //LENGTH 4.575 LUMPCC 0 DR

*CONN
*I *381:Y O *L 0 *C 22.293 12.600
*I *398:D I *L 0.543569 *C 24.152 12.752
*N *2839:2 *C 24.152 12.739
*N *2839:3 *C 24.152 11.702
*N *2839:4 *C 24.139 11.688
*N *2839:5 *C 22.190 11.688
*N *2839:6 *C 22.176 11.702
*N *2839:7 *C 22.176 12.600
*N *2839:8 *C 22.327 12.600
*N *2839:9 *C 22.313 12.600

*CAP
0 *381:Y 0.008734289
1 *398:D 0.001
2 *2839:2 0.07677621
3 *2839:3 0.07791974
4 *2839:4 0.08468986
5 *2839:5 0.08468986
6 *2839:6 0.04980588
7 *2839:7 0.05906117
8 *2839:8 0.005882139
9 *2839:9 0.007140162

*RES
0 *381:Y *2839:9 0.0888889
1 *2839:2 *398:D 1
2 *2839:3 *2839:2 1.851786
3 *2839:4 *2839:3 0.5
4 *2839:6 *2839:5 0.5
5 *2839:5 *2839:4 3.480358
6 *2839:9 *2839:8 1
7 *2839:8 *2839:7 0.2696429
8 *2839:7 *2839:6 1.604465

*END

*D_NET *2841 0.6825184 //LENGTH 6.739 LUMPCC 0 DR

*CONN
*I *379:Y O *L 0 *C 19.866 22.176
*I *394:D I *L 0.543569 *C 17.464 26.128
*N *2841:2 *C 17.464 26.114
*N *2841:3 *C 17.464 25.078
*N *2841:4 *C 17.477 25.064
*N *2841:5 *C 19.427 25.064
*N *2841:6 *C 19.440 25.050
*N *2841:7 *C 19.440 22.190
*N *2841:8 *C 19.455 22.176

*CAP
0 *379:Y 0.02996667
1 *394:D 0.001
2 *2841:2 0.04958551
3 *2841:3 0.05072904
4 *2841:4 0.07476182
5 *2841:5 0.07476182
6 *2841:6 0.1865781
7 *2841:7 0.1867629
8 *2841:8 0.02837255

*RES
0 *379:Y *2841:8 0.8220001
1 *2841:2 *394:D 1
2 *2841:3 *2841:2 1.851786
3 *2841:4 *2841:3 0.5
4 *2841:6 *2841:5 0.5
5 *2841:5 *2841:4 3.480357
6 *2841:8 *2841:7 1
7 *2841:7 *2841:6 5.108929

*END

*D_NET *2843 0.3026408 //LENGTH 3.370 LUMPCC 0 DR

*CONN
*I *376:Y O *L 0 *C 23.544 24.000
*I *251:A I *L 0.561607 *C 21.264 24.152
*N *2843:2 *C 21.264 24.166
*N *2843:3 *C 21.264 24.443
*N *2843:4 *C 21.277 24.456
*N *2843:5 *C 23.530 24.456
*N *2843:6 *C 23.544 24.443
*N *2843:7 *C 23.544 24.014

*CAP
0 *376:Y 0.001
1 *251:A 0.001
2 *2843:2 0.01698466
3 *2843:3 0.01812819
4 *2843:4 0.1037263
5 *2843:5 0.1037263
6 *2843:6 0.02960944
7 *2843:7 0.02846591

*RES
0 *376:Y *2843:7 1
1 *2843:2 *251:A 1
2 *2843:3 *2843:2 0.4946429
3 *2843:4 *2843:3 0.5
4 *2843:6 *2843:5 0.5
5 *2843:5 *2843:4 4.023215
6 *2843:7 *2843:6 0.7660715

*END

*D_NET *2846 0.4728008 //LENGTH 6.161 LUMPCC 0 DR

*CONN
*I *495:Y O *L 0 *C 42.482 43.000
*I *412:D I *L 0.543562 *C 36.920 42.848
*N *2846:2 *C 42.240 42.868
*N *2846:3 *C 36.920 42.848
*N *2846:4 *C 36.920 42.988
*N *2846:5 *C 36.934 43.000
*N *2846:6 *C 42.239 43.000
*N *2846:7 *C 42.240 42.988
*N *2846:8 *C 42.255 43.000

*CAP
0 *495:Y 0.02090471
1 *412:D 0.001
2 *2846:2 0.01261503
3 *2846:3 0.007408561
4 *2846:4 0.008552092
5 *2846:5 0.1982124
6 *2846:6 0.1982124
7 *2846:7 0.007913435
8 *2846:8 0.01798214

*RES
0 *495:Y *2846:8 0.454
1 *2846:3 *412:D 1
2 *2846:4 *2846:3 0.2325
3 *2846:5 *2846:4 0.5
4 *2846:7 *2846:6 0.5
5 *2846:7 *2846:2 0.1991667
6 *2846:6 *2846:5 9.474108
7 *2846:8 *2846:7 1

*END

*D_NET *2851 0.6855778 //LENGTH 8.516 LUMPCC 0 DR

*CONN
*I *170:Y O *L 0 *C 44.610 39.656
*I *498:D I *L 0.543569 *C 36.768 39.504
*N *2851:2 *C 43.456 39.474
*N *2851:3 *C 36.768 39.504
*N *2851:4 *C 36.768 39.644
*N *2851:5 *C 36.782 39.656
*N *2851:6 *C 43.443 39.656
*N *2851:7 *C 43.456 39.644
*N *2851:8 *C 43.471 39.656

*CAP
0 *170:Y 0.05140785
1 *498:D 0.001
2 *2851:2 0.02029924
3 *2851:3 0.007391223
4 *2851:4 0.008534755
5 *2851:5 0.2651025
6 *2851:6 0.2651025
7 *2851:7 0.01692608
8 *2851:8 0.04981373

*RES
0 *170:Y *2851:8 2.278
1 *2851:3 *498:D 1
2 *2851:4 *2851:3 0.2325
3 *2851:5 *2851:4 0.5
4 *2851:7 *2851:6 0.5
5 *2851:7 *2851:2 0.2825
6 *2851:6 *2851:5 11.89464
7 *2851:8 *2851:7 1

*END

*D_NET *2856 0.1878878 //LENGTH 2.101 LUMPCC 0 DR

*CONN
*I *465:Y O *L 0 *C 23.888 20.960
*I *466:A3 I *L 0.656896 *C 24.304 19.440
*N *2856:2 *C 24.304 19.454
*N *2856:3 *C 24.304 20.947
*N *2856:4 *C 24.289 20.960

*CAP
0 *465:Y 0.02404519
1 *466:A3 0.001
2 *2856:2 0.06953157
3 *2856:3 0.07086001
4 *2856:4 0.02245106

*RES
0 *465:Y *2856:4 0.802
1 *2856:2 *466:A3 1
2 *2856:4 *2856:3 1
3 *2856:3 *2856:2 2.666071

*END

*D_NET *2858 0.3898122 //LENGTH 4.629 LUMPCC 0 DR

*CONN
*I *467:Y O *L 0 *C 41.188 32.512
*I *468:A2 I *L 0.482724 *C 43.760 30.840
*N *2858:2 *C 43.760 30.854
*N *2858:3 *C 43.760 32.043
*N *2858:4 *C 43.747 32.056
*N *2858:5 *C 41.342 32.056
*N *2858:6 *C 41.328 32.070
*N *2858:7 *C 41.328 32.498
*N *2858:8 *C 41.316 32.512

*CAP
0 *467:Y 0.01204908
1 *468:A2 0.001
2 *2858:2 0.05667886
3 *2858:3 0.0578224
4 *2858:4 0.09936418
5 *2858:5 0.09936418
6 *2858:6 0.02644682
7 *2858:7 0.02663173
8 *2858:8 0.01045495

*RES
0 *467:Y *2858:8 0.2133333
1 *2858:2 *468:A2 1
2 *2858:3 *2858:2 2.123214
3 *2858:4 *2858:3 0.5
4 *2858:6 *2858:5 0.5
5 *2858:5 *2858:4 4.294643
6 *2858:8 *2858:7 1
7 *2858:7 *2858:6 0.7660714

*END

*D_NET *2860 0.1685095 //LENGTH 1.605 LUMPCC 0 DR

*CONN
*I *471:Y O *L 0 *C 47.395 30.622
*I *472:A1 I *L 0.549073 *C 47.256 29.016
*N *2860:2 *C 47.256 29.017
*N *2860:3 *C 47.256 30.523

*CAP
0 *471:Y 0.001
1 *472:A1 0.001
2 *2860:2 0.08323461
3 *2860:3 0.08327492

*RES
0 *471:Y *2860:3 1
1 *2860:2 *472:A1 1
2 *2860:3 *2860:2 2.688393

*END

*D_NET *2862 0.2819238 //LENGTH 3.532 LUMPCC 0 DR

*CONN
*I *472:Y O *L 0 *C 47.408 29.168
*I *475:A2 I *L 0.55521 *C 44.520 29.168
*N *2862:2 *C 44.520 29.155
*N *2862:3 *C 44.520 29.016
*N *2862:4 *C 44.534 29.016
*N *2862:5 *C 47.395 29.016
*N *2862:6 *C 47.408 29.016
*N *2862:7 *C 47.408 29.155

*CAP
0 *472:Y 0.001
1 *475:A2 0.001
2 *2862:2 0.01146218
3 *2862:3 0.01260571
4 *2862:4 0.1167493
5 *2862:5 0.1167493
6 *2862:6 0.01175042
7 *2862:7 0.01060689

*RES
0 *472:Y *2862:7 1
1 *2862:2 *475:A2 1
2 *2862:3 *2862:2 0.2325
3 *2862:4 *2862:3 0.5
4 *2862:6 *2862:5 0.5
5 *2862:5 *2862:4 5.108929
6 *2862:7 *2862:6 0.2325

*END

*D_NET *2865 2.726384 //LENGTH 41.966 LUMPCC 0 DR

*CONN
*I *466:Y O *L 0 *C 24.760 19.744
*I *164:A3 I *L 0.535117 *C 45.888 25.672
*I *472:A2 I *L 0.466516 *C 47.104 29.320
*I *467:A3 I *L 0.519105 *C 40.568 32.512
*N *2865:4 *C 40.386 31.448
*N *2865:5 *C 40.568 32.498
*N *2865:6 *C 40.568 31.462
*N *2865:7 *C 40.556 31.448
*N *2865:8 *C 40.568 31.434
*N *2865:9 *C 47.104 29.188
*N *2865:10 *C 47.104 29.308
*N *2865:11 *C 47.091 29.320
*N *2865:12 *C 45.888 25.686
*N *2865:13 *C 45.888 29.306
*N *2865:14 *C 45.902 29.320
*N *2865:15 *C 46.344 29.320
*N *2865:16 *C 46.344 29.334
*N *2865:17 *C 46.344 30.523
*N *2865:18 *C 46.331 30.536
*N *2865:19 *C 40.582 30.536
*N *2865:20 *C 40.568 30.536
*N *2865:21 *C 40.568 26.902
*N *2865:22 *C 40.555 26.888
*N *2865:23 *C 25.686 26.888
*N *2865:24 *C 25.672 26.875
*N *2865:25 *C 25.672 20.213
*N *2865:26 *C 25.659 20.200
*N *2865:27 *C 24.774 20.200
*N *2865:28 *C 24.760 20.187
*N *2865:29 *C 24.760 19.758

*CAP
0 *466:Y 0.001
1 *164:A3 0.001
2 *472:A2 0.001
3 *467:A3 0.001
4 *2865:4 0.01188533
5 *2865:5 0.04950114
6 *2865:6 0.05064467
7 *2865:7 0.008327368
8 *2865:8 0.02841049
9 *2865:9 0.01336212
10 *2865:10 0.00731084
11 *2865:11 0.02674168
12 *2865:12 0.1605896
13 *2865:13 0.1617332
14 *2865:14 0.01766296
15 *2865:15 0.0476663
16 *2865:16 0.03795226
17 *2865:17 0.03795241
18 *2865:18 0.1517013
19 *2865:19 0.1517013
20 *2865:20 0.1567169
21 *2865:21 0.1265274
22 *2865:22 0.4438791
23 *2865:23 0.4438791
24 *2865:24 0.2358776
25 *2865:25 0.2358775
26 *2865:26 0.03936722
27 *2865:27 0.03936712
28 *2865:28 0.01944651
29 *2865:29 0.01830298

*RES
0 *466:Y *2865:29 1
1 *2865:10 *472:A2 1
2 *2865:10 *2865:9 0.1991667
3 *2865:11 *2865:10 0.5
4 *2865:13 *2865:12 6.466072
5 *2865:14 *2865:13 0.5
6 *2865:12 *164:A3 1
7 *2865:15 *2865:14 0.7901786
8 *2865:15 *2865:11 1.333036
9 *2865:16 *2865:15 0.5
10 *2865:17 *2865:16 2.123214
11 *2865:18 *2865:17 0.5
12 *2865:20 *2865:19 0.5
13 *2865:20 *2865:8 1.604464
14 *2865:19 *2865:18 10.26607
15 *2865:7 *2865:6 0.5
16 *2865:7 *2865:4 0.2825
17 *2865:8 *2865:7 0.5
18 *2865:6 *2865:5 1.851786
19 *2865:5 *467:A3 1
20 *2865:21 *2865:20 6.49018
21 *2865:22 *2865:21 0.5
22 *2865:24 *2865:23 0.5
23 *2865:23 *2865:22 26.55179
24 *2865:26 *2865:25 0.5
25 *2865:25 *2865:24 11.89464
26 *2865:28 *2865:27 0.5
27 *2865:27 *2865:26 1.580357
28 *2865:29 *2865:28 0.7660714

*END

*D_NET *2871 0.3341802 //LENGTH 3.491 LUMPCC 0 DR

*CONN
*I *468:Y O *L 0 *C 44.672 31.296
*I *484:A I *L 0.582888 *C 45.280 30.840
*I *475:A1 I *L 0.610599 *C 44.368 29.320
*N *2871:3 *C 44.368 29.334
*N *2871:4 *C 44.368 30.840
*N *2871:5 *C 45.280 30.658
*N *2871:6 *C 45.280 30.828
*N *2871:7 *C 45.267 30.840
*N *2871:8 *C 44.686 30.840
*N *2871:9 *C 44.672 30.854
*N *2871:10 *C 44.672 31.283

*CAP
0 *468:Y 0.001
1 *484:A 0.001
2 *475:A1 0.001
3 *2871:3 0.08504523
4 *2871:4 0.1010137
5 *2871:5 0.01536204
6 *2871:6 0.01066044
7 *2871:7 0.03070759
8 *2871:8 0.03070759
9 *2871:9 0.03593652
10 *2871:10 0.02174703

*RES
0 *468:Y *2871:10 1
1 *2871:10 *2871:9 0.7660714
2 *2871:9 *2871:8 0.5
3 *2871:9 *2871:4 0.5428572
4 *2871:8 *2871:7 1.0375
5 *2871:6 *484:A 1
6 *2871:6 *2871:5 0.2825
7 *2871:7 *2871:6 0.5
8 *2871:3 *475:A1 1
9 *2871:4 *2871:3 2.690179

*END

*D_NET *2876 1.553109 //LENGTH 17.594 LUMPCC 0 DR

*CONN
*I *445:Y O *L 0 *C 44.368 34.032
*I *487:A5 I *L 0.542358 *C 41.632 34.032
*I *165:A1 I *L 0.545966 *C 43.304 36.008
*I *489:A5 I *L 0.542358 *C 42.240 39.504
*I *170:A5 I *L 0.542358 *C 45.280 39.504
*I *470:A1 I *L 0.610599 *C 45.644 34.184
*N *2876:6 *C 44.535 34.184
*N *2876:7 *C 44.519 34.184
*N *2876:8 *C 44.368 34.184
*N *2876:9 *C 45.280 39.518
*N *2876:10 *C 45.280 39.947
*N *2876:11 *C 45.267 39.960
*N *2876:12 *C 42.240 39.518
*N *2876:13 *C 42.240 39.947
*N *2876:14 *C 42.254 39.960
*N *2876:15 *C 43.304 39.960
*N *2876:16 *C 43.304 39.947
*N *2876:17 *C 43.304 36.008
*N *2876:18 *C 43.304 35.110
*N *2876:19 *C 43.291 35.096
*N *2876:20 *C 41.646 35.096
*N *2876:21 *C 41.632 35.083
*N *2876:22 *C 41.632 34.032
*N *2876:23 *C 41.632 33.590
*N *2876:24 *C 41.646 33.576
*N *2876:25 *C 44.355 33.576
*N *2876:26 *C 44.368 33.590
*N *2876:27 *C 44.368 34.032

*CAP
0 *445:Y 0.001
1 *487:A5 0.001
2 *165:A1 0.001
3 *489:A5 0.001
4 *170:A5 0.001
5 *470:A1 0.06328021
6 *2876:6 0.06168608
7 *2876:7 0.005630958
8 *2876:8 0.01429821
9 *2876:9 0.02728345
10 *2876:10 0.02842699
11 *2876:11 0.07075148
12 *2876:12 0.02918088
13 *2876:13 0.03032442
14 *2876:14 0.04525051
15 *2876:15 0.117781
16 *2876:16 0.1939979
17 *2876:17 0.2430168
18 *2876:18 0.04838336
19 *2876:19 0.06485493
20 *2876:20 0.06485493
21 *2876:21 0.05045595
22 *2876:22 0.07390669
23 *2876:23 0.02281523
24 *2876:24 0.1248191
25 *2876:25 0.1248191
26 *2876:26 0.0181805
27 *2876:27 0.02411009

*RES
0 *445:Y *2876:27 1
1 *2876:6 *470:A1 2.218
2 *2876:7 *2876:6 1
3 *2876:27 *2876:26 0.7901787
4 *2876:27 *2876:8 0.2714286
5 *2876:10 *2876:9 0.7660714
6 *2876:11 *2876:10 0.5
7 *2876:9 *170:A5 1
8 *2876:16 *2876:15 0.5
9 *2876:15 *2876:14 1.875893
10 *2876:15 *2876:11 3.504465
11 *2876:17 *165:A1 1
12 *2876:17 *2876:16 7.033036
13 *2876:13 *2876:12 0.7660714
14 *2876:14 *2876:13 0.5
15 *2876:12 *489:A5 1
16 *2876:18 *2876:17 1.604465
17 *2876:19 *2876:18 0.5
18 *2876:21 *2876:20 0.5
19 *2876:20 *2876:19 2.9375
20 *2876:22 *487:A5 1
21 *2876:22 *2876:21 1.875893
22 *2876:26 *2876:25 0.5
23 *2876:25 *2876:24 4.8375
24 *2876:23 *2876:22 0.7901787
25 *2876:24 *2876:23 0.5
26 *2876:8 *2876:7 0.2696429

*END

*D_NET *2883 0.8615421 //LENGTH 10.225 LUMPCC 0 DR

*CONN
*I *431:Y O *L 0 *C 47.408 41.024
*I *496:A4 I *L 0.513828 *C 44.064 41.024
*I *490:A2 I *L 0.570549 *C 46.997 41.936
*I *169:A2 I *L 0.515513 *C 46.648 44.976
*I *169:A1 I *L 0.484201 *C 46.815 44.216
*N *2883:5 *C 46.648 44.963
*N *2883:6 *C 46.648 44.824
*N *2883:7 *C 46.800 44.824
*N *2883:8 *C 46.800 44.230
*N *2883:9 *C 46.815 44.216
*N *2883:10 *C 47.089 44.216
*N *2883:11 *C 47.103 44.216
*N *2883:12 *C 46.952 44.216
*N *2883:13 *C 46.952 41.936
*N *2883:14 *C 46.952 41.950
*N *2883:15 *C 46.952 42.392
*N *2883:16 *C 46.966 42.392
*N *2883:17 *C 47.395 42.392
*N *2883:18 *C 47.408 42.379
*N *2883:19 *C 44.064 41.038
*N *2883:20 *C 44.064 41.467
*N *2883:21 *C 44.078 41.480
*N *2883:22 *C 47.395 41.480
*N *2883:23 *C 47.408 41.480
*N *2883:24 *C 47.408 41.038

*CAP
0 *431:Y 0.001
1 *496:A4 0.001
2 *490:A2 0.008719467
3 *169:A2 0.001
4 *169:A1 0.001
5 *2883:5 0.00510453
6 *2883:6 0.01454962
7 *2883:7 0.04173752
8 *2883:8 0.03229243
9 *2883:9 0.01432612
10 *2883:10 0.01565456
11 *2883:11 0.00508114
12 *2883:12 0.0913666
13 *2883:13 0.00712534
14 *2883:14 0.02299559
15 *2883:15 0.107502
16 *2883:16 0.01706981
17 *2883:17 0.01706981
18 *2883:18 0.04346476
19 *2883:19 0.02543884
20 *2883:20 0.02658238
21 *2883:21 0.1403888
22 *2883:22 0.1403888
23 *2883:23 0.06353568
24 *2883:24 0.01714835

*RES
0 *431:Y *2883:24 1
1 *2883:24 *2883:23 0.7901786
2 *2883:13 *490:A2 0.09166668
3 *2883:14 *2883:13 1
4 *2883:18 *2883:17 0.5
5 *2883:17 *2883:16 0.7660714
6 *2883:15 *2883:14 0.7901787
7 *2883:15 *2883:12 3.257143
8 *2883:16 *2883:15 0.5
9 *2883:10 *2883:9 0.5486
10 *2883:11 *2883:10 1
11 *2883:8 *2883:7 1.061607
12 *2883:5 *169:A2 1
13 *2883:23 *2883:22 0.5
14 *2883:23 *2883:18 1.604464
15 *2883:22 *2883:21 5.923215
16 *2883:20 *2883:19 0.7660714
17 *2883:21 *2883:20 0.5
18 *2883:19 *496:A4 1
19 *2883:6 *2883:5 0.2473214
20 *2883:7 *2883:6 0.2714286
21 *2883:12 *2883:11 0.2696429
22 *2883:9 *2883:8 1
23 *2883:9 *169:A1 0.001

*END

*D_NET *2888 1.256583 //LENGTH 14.497 LUMPCC 0 DR

*CONN
*I *411:QN O *L 0 *C 37.211 41.346
*I *432:A3 I *L 0.584801 *C 41.632 42.544
*I *496:A1 I *L 0.483711 *C 43.760 40.872
*I *496:A3 I *L 0.536755 *C 44.368 41.176
*I *490:A1 I *L 0.526361 *C 47.256 42.696
*N *2888:5 *C 47.256 42.683
*N *2888:6 *C 47.256 41.797
*N *2888:7 *C 47.242 41.784
*N *2888:8 *C 44.382 41.784
*N *2888:9 *C 44.368 41.771
*N *2888:10 *C 44.368 41.190
*N *2888:11 *C 44.355 41.176
*N *2888:12 *C 43.760 40.886
*N *2888:13 *C 43.760 41.163
*N *2888:14 *C 43.760 41.176
*N *2888:15 *C 41.632 42.531
*N *2888:16 *C 41.632 41.190
*N *2888:17 *C 41.632 41.176
*N *2888:18 *C 37.086 41.176
*N *2888:19 *C 37.072 41.176
*N *2888:20 *C 37.072 41.316
*N *2888:21 *C 37.084 41.328

*CAP
0 *411:QN 0.01461232
1 *432:A3 0.001
2 *496:A1 0.001
3 *496:A3 0.001
4 *490:A1 0.001
5 *2888:5 0.04895268
6 *2888:6 0.05009622
7 *2888:7 0.1259878
8 *2888:8 0.1259878
9 *2888:9 0.04032964
10 *2888:10 0.03740707
11 *2888:11 0.02631435
12 *2888:12 0.0205752
13 *2888:13 0.02171873
14 *2888:14 0.1098108
15 *2888:15 0.07881665
16 *2888:16 0.07996017
17 *2888:17 0.2628604
18 *2888:18 0.1793639
19 *2888:19 0.008293308
20 *2888:20 0.008478216
21 *2888:21 0.01301819

*RES
0 *411:QN *2888:21 0.21
1 *2888:9 *2888:8 0.5
2 *2888:8 *2888:7 5.108929
3 *2888:6 *2888:5 1.580357
4 *2888:7 *2888:6 0.5
5 *2888:5 *490:A1 1
6 *2888:10 *496:A3 1
7 *2888:10 *2888:9 1.0375
8 *2888:11 *2888:10 0.5
9 *2888:13 *2888:12 0.4946429
10 *2888:14 *2888:13 0.5
11 *2888:14 *2888:11 1.061607
12 *2888:12 *496:A1 1
13 *2888:16 *2888:15 2.394643
14 *2888:17 *2888:16 0.5
15 *2888:17 *2888:14 3.8
16 *2888:15 *432:A3 1
17 *2888:19 *2888:18 0.5
18 *2888:18 *2888:17 8.118752
19 *2888:21 *2888:20 1
20 *2888:20 *2888:19 0.2325

*END

*D_NET *2894 0.5386465 //LENGTH 5.791 LUMPCC 0 DR

*CONN
*I *418:Q O *L 0 *C 40.112 34.488
*I *487:A1 I *L 0.484201 *C 40.857 34.184
*I *444:A2 I *L 0.578798 *C 41.480 37.528
*N *2894:3 *C 41.480 37.515
*N *2894:4 *C 41.480 35.400
*N *2894:5 *C 41.328 35.400
*N *2894:6 *C 41.328 35.110
*N *2894:7 *C 41.315 35.096
*N *2894:8 *C 40.733 35.096
*N *2894:9 *C 40.720 35.083
*N *2894:10 *C 40.733 34.184
*N *2894:11 *C 40.720 34.198
*N *2894:12 *C 40.112 34.184
*N *2894:13 *C 40.112 34.474

*CAP
0 *418:Q 0.001
1 *487:A1 0.01456624
2 *444:A2 0.001
3 *2894:3 0.1052568
4 *2894:4 0.1156881
5 *2894:5 0.03218591
6 *2894:6 0.02289811
7 *2894:7 0.02462683
8 *2894:8 0.02462683
9 *2894:9 0.05320908
10 *2894:10 0.01297212
11 *2894:11 0.07801247
12 *2894:12 0.04007258
13 *2894:13 0.01253153

*RES
0 *418:Q *2894:13 1
1 *2894:9 *2894:8 0.5
2 *2894:8 *2894:7 1.0375
3 *2894:6 *2894:5 0.5187501
4 *2894:7 *2894:6 0.5
5 *2894:3 *444:A2 1
6 *2894:10 *487:A1 0.2075
7 *2894:11 *2894:10 1
8 *2894:11 *2894:9 1.580357
9 *2894:13 *2894:12 0.5187501
10 *2894:12 *2894:11 1.085714
11 *2894:5 *2894:4 0.2714286
12 *2894:4 *2894:3 3.775893

*END

*D_NET *2898 1.536504 //LENGTH 17.680 LUMPCC 0 DR

*CONN
*I *414:Q O *L 0 *C 39.808 32.360
*I *424:A1 I *L 0.530735 *C 39.960 29.320
*I *419:A2 I *L 0.499019 *C 41.480 27.800
*I *433:A2 I *L 0.509119 *C 43.000 32.360
*I *468:A1 I *L 0.526794 *C 44.064 30.992
*I *471:A4 I *L 0.601444 *C 46.344 30.992
*N *2898:6 *C 46.344 30.992
*N *2898:7 *C 46.344 31.132
*N *2898:8 *C 46.331 31.144
*N *2898:9 *C 44.064 30.992
*N *2898:10 *C 44.064 31.132
*N *2898:11 *C 44.064 31.144
*N *2898:12 *C 43.000 32.346
*N *2898:13 *C 43.000 31.158
*N *2898:14 *C 43.000 31.144
*N *2898:15 *C 42.406 31.144
*N *2898:16 *C 42.392 31.131
*N *2898:17 *C 42.392 28.422
*N *2898:18 *C 42.379 28.408
*N *2898:19 *C 41.494 28.408
*N *2898:20 *C 41.480 28.395
*N *2898:21 *C 41.480 27.800
*N *2898:22 *C 41.480 27.510
*N *2898:23 *C 41.467 27.496
*N *2898:24 *C 39.974 27.496
*N *2898:25 *C 39.960 27.510
*N *2898:26 *C 39.960 29.320
*N *2898:27 *C 39.960 30.232
*N *2898:28 *C 39.808 30.232
*N *2898:29 *C 39.808 32.346

*CAP
0 *414:Q 0.001
1 *424:A1 0.001
2 *419:A2 0.001
3 *433:A2 0.001
4 *468:A1 0.001
5 *471:A4 0.001
6 *2898:6 0.009886853
7 *2898:7 0.01103038
8 *2898:8 0.08703648
9 *2898:9 0.008536005
10 *2898:10 0.009679536
11 *2898:11 0.1278458
12 *2898:12 0.06845997
13 *2898:13 0.0696035
14 *2898:14 0.06179426
15 *2898:15 0.02098492
16 *2898:16 0.1136912
17 *2898:17 0.1136912
18 *2898:18 0.0443004
19 *2898:19 0.0443004
20 *2898:20 0.04369047
21 *2898:21 0.06716768
22 *2898:22 0.02284171
23 *2898:23 0.07213987
24 *2898:24 0.07213987
25 *2898:25 0.08334859
26 *2898:26 0.1244862
27 *2898:27 0.04980804
28 *2898:28 0.1072448
29 *2898:29 0.09679534

*RES
0 *414:Q *2898:29 1
1 *2898:7 *2898:6 0.2325
2 *2898:8 *2898:7 0.5
3 *2898:6 *471:A4 1
4 *2898:10 *2898:9 0.2325
5 *2898:11 *2898:10 0.5
6 *2898:11 *2898:8 4.047322
7 *2898:9 *468:A1 1
8 *2898:13 *2898:12 2.123214
9 *2898:14 *2898:13 0.5
10 *2898:14 *2898:11 1.9
11 *2898:12 *433:A2 1
12 *2898:16 *2898:15 0.5
13 *2898:15 *2898:14 1.061607
14 *2898:17 *2898:16 4.837501
15 *2898:18 *2898:17 0.5
16 *2898:20 *2898:19 0.5
17 *2898:19 *2898:18 1.580357
18 *2898:21 *419:A2 1
19 *2898:21 *2898:20 1.061607
20 *2898:26 *424:A1 1
21 *2898:26 *2898:25 3.233036
22 *2898:22 *2898:21 0.5187501
23 *2898:23 *2898:22 0.5
24 *2898:25 *2898:24 0.5
25 *2898:24 *2898:23 2.666071
26 *2898:29 *2898:28 3.775893
27 *2898:28 *2898:27 0.2714286
28 *2898:27 *2898:26 1.628572

*END

*D_NET *2902 0.6611305 //LENGTH 8.262 LUMPCC 0 DR

*CONN
*I *412:Q O *L 0 *C 40.568 42.392
*I *492:A1 I *L 0.484201 *C 42.696 46.040
*I *495:A3 I *L 0.536755 *C 43.456 42.392
*I *495:A1 I *L 0.483711 *C 44.064 42.696
*N *2902:4 *C 40.568 42.210
*N *2902:5 *C 44.064 42.683
*N *2902:6 *C 44.064 42.406
*N *2902:7 *C 44.050 42.392
*N *2902:8 *C 43.456 42.210
*N *2902:9 *C 43.456 42.380
*N *2902:10 *C 43.456 42.392
*N *2902:11 *C 42.696 46.027
*N *2902:12 *C 42.696 42.406
*N *2902:13 *C 42.696 42.392
*N *2902:14 *C 40.582 42.392
*N *2902:15 *C 40.568 42.380

*CAP
0 *412:Q 0.001
1 *492:A1 0.001
2 *495:A3 0.001
3 *495:A1 0.001
4 *2902:4 0.01373394
5 *2902:5 0.01614639
6 *2902:6 0.01728992
7 *2902:7 0.02397328
8 *2902:8 0.01805071
9 *2902:9 0.01334911
10 *2902:10 0.05250775
11 *2902:11 0.1479647
12 *2902:12 0.1491083
13 *2902:13 0.1122543
14 *2902:14 0.08371981
15 *2902:15 0.009032344

*RES
0 *412:Q *2902:15 1
1 *2902:6 *2902:5 0.4946429
2 *2902:7 *2902:6 0.5
3 *2902:5 *495:A1 1
4 *2902:9 *495:A3 1
5 *2902:9 *2902:8 0.2825
6 *2902:10 *2902:9 0.5
7 *2902:10 *2902:7 1.061607
8 *2902:12 *2902:11 6.466071
9 *2902:13 *2902:12 0.5
10 *2902:13 *2902:10 1.357143
11 *2902:11 *492:A1 1
12 *2902:15 *2902:14 0.5
13 *2902:15 *2902:4 0.2825
14 *2902:14 *2902:13 3.775893

*END

*D_NET *2907 0.7301435 //LENGTH 7.831 LUMPCC 0 DR

*CONN
*I *164:Y O *L 0 *C 44.824 26.280
*I *410:D I *L 0.543562 *C 38.744 27.344
*N *2907:2 *C 44.824 26.098
*N *2907:3 *C 38.744 27.332
*N *2907:4 *C 38.744 27.192
*N *2907:5 *C 38.758 27.192
*N *2907:6 *C 42.379 27.192
*N *2907:7 *C 42.392 27.178
*N *2907:8 *C 42.392 26.294
*N *2907:9 *C 42.406 26.280
*N *2907:10 *C 44.811 26.280
*N *2907:11 *C 44.824 26.268

*CAP
0 *164:Y 0.001
1 *410:D 0.001
2 *2907:2 0.01712024
3 *2907:3 0.01029261
4 *2907:4 0.01143614
5 *2907:5 0.2027185
6 *2907:6 0.2027186
7 *2907:7 0.03041958
8 *2907:8 0.03041958
9 *2907:9 0.1052999
10 *2907:10 0.1052998
11 *2907:11 0.01241864

*RES
0 *164:Y *2907:11 1
1 *2907:3 *410:D 1
2 *2907:4 *2907:3 0.2325
3 *2907:5 *2907:4 0.5
4 *2907:6 *2907:5 6.466072
5 *2907:7 *2907:6 0.5
6 *2907:9 *2907:8 0.5
7 *2907:8 *2907:7 1.580357
8 *2907:11 *2907:10 0.5
9 *2907:11 *2907:2 0.2825
10 *2907:10 *2907:9 4.294643

*END

*D_NET *2910 0.6241339 //LENGTH 6.806 LUMPCC 0 DR

*CONN
*I *507:Y O *L 0 *C 43.304 10.776
*I *508:A5 I *L 0.557577 *C 39.200 10.776
*N *2910:2 *C 43.304 10.594
*N *2910:3 *C 39.200 10.763
*N *2910:4 *C 39.200 9.712
*N *2910:5 *C 41.480 9.712
*N *2910:6 *C 41.480 10.763
*N *2910:7 *C 41.494 10.776
*N *2910:8 *C 43.291 10.776
*N *2910:9 *C 43.304 10.764

*CAP
0 *507:Y 0.001
1 *508:A5 0.001
2 *2910:2 0.01141844
3 *2910:3 0.06165136
4 *2910:4 0.14816
5 *2910:5 0.1562532
6 *2910:6 0.07088809
7 *2910:7 0.08352297
8 *2910:8 0.08352297
9 *2910:9 0.00671684

*RES
0 *507:Y *2910:9 1
1 *2910:3 *508:A5 1
2 *2910:6 *2910:5 1.875893
3 *2910:7 *2910:6 0.5
4 *2910:9 *2910:8 0.5
5 *2910:9 *2910:2 0.2825
6 *2910:8 *2910:7 3.208929
7 *2910:4 *2910:3 1.875893
8 *2910:5 *2910:4 4.071429

*END

*D_NET *2912 0.199014 //LENGTH 2.046 LUMPCC 0 DR

*CONN
*I *208:Y O *L 0 *C 8.496 6.064
*I *209:A3 I *L 0.539281 *C 8.648 7.736
*N *2912:2 *C 8.648 7.723
*N *2912:3 *C 8.648 7.128
*N *2912:4 *C 8.496 7.128
*N *2912:5 *C 8.496 6.078

*CAP
0 *208:Y 0.001
1 *209:A3 0.001
2 *2912:2 0.03711384
3 *2912:3 0.04715156
4 *2912:4 0.06139318
5 *2912:5 0.05135546

*RES
0 *208:Y *2912:5 1
1 *2912:2 *209:A3 1
2 *2912:5 *2912:4 1.875893
3 *2912:4 *2912:3 0.2714286
4 *2912:3 *2912:2 1.061607

*END

*D_NET *2915 0.3066063 //LENGTH 2.677 LUMPCC 0 DR

*CONN
*I *271:Y O *L 0 *C 32.014 15.805
*I *80:A3 I *L 0.455637 *C 32.482 17.793
*N *2915:2 *C 32.071 17.768
*N *2915:3 *C 32.056 17.755
*N *2915:4 *C 32.056 15.806
*N *2915:5 *C 32.056 15.792

*CAP
0 *271:Y 0.01164009
1 *80:A3 0.02361685
2 *2915:2 0.02202272
3 *2915:3 0.1196403
4 *2915:4 0.1196403
5 *2915:5 0.01004597

*RES
0 *271:Y *2915:5 0.09166668
1 *2915:2 *80:A3 0.8220002
2 *2915:3 *2915:2 1
3 *2915:5 *2915:4 1
4 *2915:4 *2915:3 3.480357

*END

*D_NET *2918 1.514537 //LENGTH 18.114 LUMPCC 0 DR

*CONN
*I *79:Y O *L 0 *C 26.280 34.032
*I *105:A1 I *L 0.529859 *C 29.016 18.984
*N *2918:2 *C 29.016 18.998
*N *2918:3 *C 29.016 20.491
*N *2918:4 *C 29.003 20.504
*N *2918:5 *C 26.294 20.504
*N *2918:6 *C 26.280 20.518
*N *2918:7 *C 26.280 34.019

*CAP
0 *79:Y 0.001
1 *105:A1 0.001
2 *2918:2 0.06379107
3 *2918:3 0.0649346
4 *2918:4 0.1043836
5 *2918:5 0.1043836
6 *2918:6 0.5880938
7 *2918:7 0.5869503

*RES
0 *79:Y *2918:7 1
1 *2918:2 *105:A1 1
2 *2918:3 *2918:2 2.666072
3 *2918:4 *2918:3 0.5
4 *2918:6 *2918:5 0.5
5 *2918:5 *2918:4 4.8375
6 *2918:7 *2918:6 24.10893

*END

*D_NET *2 2.537136 //LENGTH 43.357 LUMPCC 0 DR

*CONN
*P *2 I *L 0 *C 52.454 32.664
*I *465:A1 I *L 0.549073 *C 23.694 21.140
*I *378:A2 I *L 0.501039 *C 22.176 22.328
*N *2:3 *C 22.176 22.315
*N *2:4 *C 22.176 21.733
*N *2:5 *C 22.190 21.720
*N *2:6 *C 23.556 21.112
*N *2:7 *C 23.544 21.126
*N *2:8 *C 23.544 21.707
*N *2:9 *C 23.544 21.720
*N *2:10 *C 24.443 21.720
*N *2:11 *C 24.456 21.733
*N *2:12 *C 24.456 22.619
*N *2:13 *C 24.470 22.632
*N *2:14 *C 49.067 22.632
*N *2:15 *C 49.080 22.646
*N *2:16 *C 49.080 32.651
*N *2:17 *C 49.093 32.664

*CAP
0 *2 0.09261329
1 *465:A1 0.01173107
2 *378:A2 0.001
3 *2:3 0.03671708
4 *2:4 0.03786061
5 *2:5 0.04672102
6 *2:6 0.01013695
7 *2:7 0.04911382
8 *2:8 0.04892891
9 *2:9 0.08330624
10 *2:10 0.03480629
11 *2:11 0.03808472
12 *2:12 0.03808486
13 *2:13 0.6885605
14 *2:14 0.6885605
15 *2:15 0.2700379
16 *2:16 0.2700377
17 *2:17 0.09083436

*RES
0 *2 *2:17 6.000893
1 *2:10 *2:9 1.604464
2 *2:11 *2:10 0.5
3 *2:12 *2:11 1.580357
4 *2:13 *2:12 0.5
5 *2:15 *2:14 0.5
6 *2:14 *2:13 43.92321
7 *2:17 *2:16 0.5
8 *2:16 *2:15 17.86607
9 *2:8 *2:7 1.0375
10 *2:9 *2:8 0.5
11 *2:9 *2:5 2.41875
12 *2:6 *465:A1 0.2283333
13 *2:7 *2:6 1
14 *2:4 *2:3 1.0375
15 *2:5 *2:4 0.5
16 *2:3 *378:A2 1

*END

*D_NET *8 3.998292 //LENGTH 57.509 LUMPCC 0 DR

*CONN
*P *8 I *L 0 *C 26.584 0.258
*I *474:A1 I *L 0.610599 *C 43.456 27.496
*I *485:A2 I *L 0.538095 *C 46.344 32.816
*I *469:A I *L 0.582888 *C 47.408 36.008
*N *8:4 *C 47.408 35.995
*N *8:5 *C 47.408 35.110
*N *8:6 *C 47.395 35.096
*N *8:7 *C 46.358 35.096
*N *8:8 *C 46.344 35.083
*N *8:9 *C 46.344 32.816
*N *8:10 *C 46.344 31.766
*N *8:11 *C 46.331 31.752
*N *8:12 *C 43.470 31.752
*N *8:13 *C 43.456 31.739
*N *8:14 *C 43.456 27.496
*N *8:15 *C 43.456 25.686
*N *8:16 *C 43.443 25.672
*N *8:17 *C 43.014 25.672
*N *8:18 *C 43.000 25.659
*N *8:19 *C 43.000 3.190
*N *8:20 *C 42.986 3.176
*N *8:21 *C 26.598 3.176
*N *8:22 *C 26.584 3.163

*CAP
0 *8 0.1019172
1 *474:A1 0.001
2 *485:A2 0.001
3 *469:A 0.001
4 *8:4 0.03195791
5 *8:5 0.03310144
6 *8:6 0.03392121
7 *8:7 0.03392121
8 *8:8 0.1011384
9 *8:9 0.159759
10 *8:10 0.05798518
11 *8:11 0.1056957
12 *8:12 0.1056957
13 *8:13 0.2227115
14 *8:14 0.3206771
15 *8:15 0.09733012
16 *8:16 0.02254477
17 *8:17 0.02254487
18 *8:18 0.7387795
19 *8:19 0.7387795
20 *8:20 0.4833468
21 *8:21 0.4833468
22 *8:22 0.1001382

*RES
0 *8 *8:22 5.186607
1 *8:8 *8:7 0.5
2 *8:7 *8:6 1.851786
3 *8:5 *8:4 1.580357
4 *8:6 *8:5 0.5
5 *8:4 *469:A 1
6 *8:9 *485:A2 1
7 *8:9 *8:8 4.047322
8 *8:10 *8:9 1.875893
9 *8:11 *8:10 0.5
10 *8:13 *8:12 0.5
11 *8:12 *8:11 5.108928
12 *8:14 *474:A1 1
13 *8:14 *8:13 7.575894
14 *8:15 *8:14 3.233036
15 *8:16 *8:15 0.5
16 *8:17 *8:16 0.7660714
17 *8:18 *8:17 0.5
18 *8:20 *8:19 0.5
19 *8:19 *8:18 40.12321
20 *8:22 *8:21 0.5
21 *8:21 *8:20 29.26608

*END

*D_NET *17 1.884852 //LENGTH 32.251 LUMPCC 0 DR

*CONN
*I *116:Y O *L 0 *C 30.688 22.936
*P *17 O *L 0.05 *C 0.258 22.936
*N *17:2 *C 5.595 22.936
*N *17:3 *C 5.608 22.950
*N *17:4 *C 5.608 23.227
*N *17:5 *C 5.622 23.240
*N *17:6 *C 26.267 23.240
*N *17:7 *C 26.280 23.254
*N *17:8 *C 26.280 23.530
*N *17:9 *C 26.294 23.544
*N *17:10 *C 30.675 23.544
*N *17:11 *C 30.688 23.530
*N *17:12 *C 30.688 22.950

*CAP
0 *116:Y 0.001
1 *17 0.1548491
2 *17:2 0.1530702
3 *17:3 0.01076784
4 *17:4 0.01076799
5 *17:5 0.5590767
6 *17:6 0.5590767
7 *17:7 0.01313103
8 *17:8 0.01313089
9 *17:9 0.1675039
10 *17:10 0.1675038
11 *17:11 0.03805849
12 *17:12 0.03691496

*RES
0 *116:Y *17:12 1
1 *17:12 *17:11 1.0375
2 *17:11 *17:10 0.5
3 *17:10 *17:9 7.823215
4 *17:9 *17:8 0.5
5 *17:8 *17:7 0.4946429
6 *17:7 *17:6 0.5
7 *17:6 *17:5 36.86608
8 *17:4 *17:3 0.4946429
9 *17:5 *17:4 0.5
10 *17:2 *17 9.529465
11 *17:3 *17:2 0.5

*END

*D_NET *21 0.3287774 //LENGTH 6.123 LUMPCC 0 DR

*CONN
*I *128:Y O *L 0 *C 47.560 46.192
*P *21 O *L 0.05 *C 52.454 47.256
*N *21:2 *C 47.574 47.256
*N *21:3 *C 47.560 47.242
*N *21:4 *C 47.560 46.206

*CAP
0 *128:Y 0.001
1 *21 0.1302796
2 *21:2 0.1285006
3 *21:3 0.03507034
4 *21:4 0.0339268

*RES
0 *128:Y *21:4 1
1 *21:4 *21:3 1.851786
2 *21:3 *21:2 0.5
3 *21:2 *21 8.715178

*END

*D_NET *24 0.609544 //LENGTH 7.581 LUMPCC 0 DR

*CONN
*I *70:Y O *L 0 *C 40.416 6.216
*P *24 O *L 0.05 *C 41.632 0.258
*N *24:2 *C 40.416 6.034
*N *24:3 *C 41.632 6.203
*N *24:4 *C 41.619 6.216
*N *24:5 *C 40.430 6.216
*N *24:6 *C 40.416 6.204

*CAP
0 *70:Y 0.001
1 *24 0.2291069
2 *24:2 0.01132174
3 *24:3 0.2273279
4 *24:4 0.06708369
5 *24:5 0.06708369
6 *24:6 0.006620143

*RES
0 *70:Y *24:6 1
1 *24:6 *24:5 0.5
2 *24:6 *24:2 0.2825
3 *24:5 *24:4 2.123214
4 *24:3 *24 10.61518
5 *24:4 *24:3 0.5

*END

*D_NET *27 0.5794548 //LENGTH 9.734 LUMPCC 0 DR

*CONN
*I *126:Y O *L 0 *C 47.560 6.064
*P *27 O *L 0.05 *C 51.208 0.258
*N *27:2 *C 51.208 5.899
*N *27:3 *C 51.195 5.912
*N *27:4 *C 47.574 5.912
*N *27:5 *C 47.560 5.912
*N *27:6 *C 47.560 6.051

*CAP
0 *126:Y 0.001
1 *27 0.1697491
2 *27:2 0.16797
3 *27:3 0.1140417
4 *27:4 0.1140417
5 *27:5 0.006897921
6 *27:6 0.005754389

*RES
0 *126:Y *27:6 1
1 *27:6 *27:5 0.2325
2 *27:5 *27:4 0.5
3 *27:4 *27:3 6.466072
4 *27:2 *27 10.07232
5 *27:3 *27:2 0.5

*END

*D_NET *33 0.5813442 //LENGTH 7.949 LUMPCC 0 DR

*CONN
*I *110:Y O *L 0 *C 12.448 43.915
*P *33 O *L 0.05 *C 12.600 51.542
*N *33:2 *C 12.600 45.736
*N *33:3 *C 12.448 45.736
*N *33:4 *C 12.448 43.925

*CAP
0 *110:Y 0.001
1 *33 0.1996441
2 *33:2 0.2063785
3 *33:3 0.0919691
4 *33:4 0.0823525

*RES
0 *110:Y *33:4 1
1 *33:4 *33:3 3.233036
2 *33:3 *33:2 0.2714286
3 *33:2 *33 10.36786

*END

*D_NET *34 0.3895675 //LENGTH 6.731 LUMPCC 0 DR

*CONN
*I *123:Y O *L 0 *C 47.560 26.128
*P *34 O *L 0.05 *C 52.454 27.800
*N *34:2 *C 47.574 27.800
*N *34:3 *C 47.560 27.787
*N *34:4 *C 47.560 26.142

*CAP
0 *123:Y 0.001
1 *34 0.1376339
2 *34:2 0.1358548
3 *34:3 0.05811116
4 *34:4 0.05696762

*RES
0 *123:Y *34:4 1
1 *34:4 *34:3 2.9375
2 *34:3 *34:2 0.5
3 *34:2 *34 8.715178

*END

*D_NET *38 1.772961 //LENGTH 24.086 LUMPCC 0 DR

*CONN
*I *47:Y O *L 0 *C 21.236 28.864
*P *38 O *L 0.05 *C 0.258 26.280
*I *48:A I *L 0.582888 *C 20.808 25.976
*N *38:3 *C 20.808 25.989
*N *38:4 *C 20.794 26.280
*N *38:5 *C 20.808 26.280
*N *38:6 *C 20.808 28.851
*N *38:7 *C 20.823 28.864

*CAP
0 *47:Y 0.0304815
1 *38 0.6728905
2 *48:A 0.001
3 *38:3 0.01875436
4 *38:4 0.6711115
5 *38:5 0.185664
6 *38:6 0.164172
7 *38:7 0.02888738

*RES
0 *47:Y *38:7 0.8260002
1 *38:7 *38:6 1
2 *38:6 *38:5 4.590179
3 *38:3 *48:A 1
4 *38:5 *38:4 0.5
5 *38:5 *38:3 0.5187501
6 *38:4 *38 36.67233

*END

*D_NET *41 1.280428 //LENGTH 22.795 LUMPCC 0 DR

*CONN
*I *107:Y O *L 0 *C 20.736 27.192
*P *41 O *L 0.05 *C 0.258 28.408
*N *41:2 *C 20.656 27.010
*N *41:3 *C 3.771 28.408
*N *41:4 *C 3.784 28.395
*N *41:5 *C 3.784 28.117
*N *41:6 *C 3.798 28.104
*N *41:7 *C 20.794 28.104
*N *41:8 *C 20.808 28.091
*N *41:9 *C 20.808 27.206
*N *41:10 *C 20.796 27.192
*N *41:11 *C 20.656 27.192
*N *41:12 *C 20.656 27.180
*N *41:13 *C 20.669 27.192

*CAP
0 *107:Y 0.00911867
1 *41 0.100435
2 *41:2 0.0201362
3 *41:3 0.0986561
4 *41:4 0.01036991
5 *41:5 0.01037006
6 *41:6 0.4634324
7 *41:7 0.4634324
8 *41:8 0.02834376
9 *41:9 0.02834362
10 *41:10 0.01175126
11 *41:11 0.01175116
12 *41:12 0.01676304
13 *41:13 0.007524543

*RES
0 *107:Y *41:13 0.1125
1 *41:13 *41:12 1
2 *41:12 *41:11 0.5
3 *41:12 *41:2 0.2825
4 *41:11 *41:10 0.2325
5 *41:10 *41:9 0.5
6 *41:9 *41:8 1.580357
7 *41:8 *41:7 0.5
8 *41:7 *41:6 30.35179
9 *41:5 *41:4 0.4946429
10 *41:6 *41:5 0.5
11 *41:3 *41 6.272322
12 *41:4 *41:3 0.5

*END

*D_NET *2554 6.061854 //LENGTH 76.541 LUMPCC 0 DR

*CONN
*I *158:Y O *L 0 *C 43.000 26.584
*I *282:A2 I *L 0.466516 *C 35.704 34.184
*I *275:A2 I *L 0.578798 *C 34.488 34.184
*I *319:A4 I *L 0.443333 *C 32.664 40.872
*I *314:A2 I *L 0.466516 *C 34.032 40.872
*I *278:A4 I *L 0.565045 *C 31.600 36.008
*I *221:A2 I *L 0.537813 *C 10.320 32.664
*I *265:A5 I *L 0.542358 *C 8.040 29.472
*I *161:A1 I *L 0.604822 *C 8.648 41.024
*I *263:A1 I *L 0.549073 *C 44.216 27.800
*I *206:A2 I *L 0.507925 *C 44.216 21.872
*N *2554:11 *C 44.216 21.886
*N *2554:12 *C 44.216 23.696
*N *2554:13 *C 44.520 23.696
*N *2554:14 *C 44.520 26.736
*N *2554:15 *C 44.216 26.736
*N *2554:16 *C 44.216 27.800
*N *2554:17 *C 44.216 28.091
*N *2554:18 *C 44.203 28.104
*N *2554:19 *C 8.648 41.024
*N *2554:20 *C 8.648 41.163
*N *2554:21 *C 8.662 41.176
*N *2554:22 *C 10.306 41.176
*N *2554:23 *C 10.320 41.163
*N *2554:24 *C 8.040 29.486
*N *2554:25 *C 8.040 31.739
*N *2554:26 *C 8.053 31.752
*N *2554:27 *C 10.306 31.752
*N *2554:28 *C 10.320 31.766
*N *2554:29 *C 10.320 32.664
*N *2554:30 *C 10.320 34.792
*N *2554:31 *C 10.334 34.792
*N *2554:32 *C 15.627 34.792
*N *2554:33 *C 15.640 34.806
*N *2554:34 *C 15.640 35.387
*N *2554:35 *C 15.654 35.400
*N *2554:36 *C 31.600 35.995
*N *2554:37 *C 31.600 35.413
*N *2554:38 *C 31.600 35.400
*N *2554:39 *C 34.032 40.871
*N *2554:40 *C 34.032 40.264
*N *2554:41 *C 32.664 40.858
*N *2554:42 *C 32.664 40.278
*N *2554:43 *C 32.678 40.264
*N *2554:44 *C 33.715 40.264
*N *2554:45 *C 33.728 40.264
*N *2554:46 *C 33.728 35.413
*N *2554:47 *C 33.728 35.400
*N *2554:48 *C 34.474 35.400
*N *2554:49 *C 34.488 35.387
*N *2554:50 *C 34.488 34.198
*N *2554:51 *C 34.502 34.184
*N *2554:52 *C 35.704 34.052
*N *2554:53 *C 35.704 34.172
*N *2554:54 *C 35.704 34.184
*N *2554:55 *C 39.035 34.184
*N *2554:56 *C 39.048 34.171
*N *2554:57 *C 39.048 28.117
*N *2554:58 *C 39.062 28.104
*N *2554:59 *C 43.000 28.104
*N *2554:60 *C 43.000 28.091
*N *2554:61 *C 43.000 26.598

*CAP
0 *158:Y 0.001
1 *282:A2 0.001
2 *275:A2 0.001
3 *319:A4 0.001
4 *314:A2 0.001
5 *278:A4 0.001
6 *221:A2 0.001
7 *265:A5 0.001
8 *161:A1 0.001
9 *263:A1 0.001
10 *206:A2 0.001
11 *2554:11 0.08706981
12 *2554:12 0.1026561
13 *2554:13 0.1562213
14 *2554:14 0.1565671
15 *2554:15 0.08092047
16 *2554:16 0.0867807
17 *2554:17 0.02001316
18 *2554:18 0.04890042
19 *2554:19 0.01363053
20 *2554:20 0.01477407
21 *2554:21 0.06686351
22 *2554:22 0.06686351
23 *2554:23 0.2669632
24 *2554:24 0.09779581
25 *2554:25 0.09893933
26 *2554:26 0.09303021
27 *2554:27 0.09303021
28 *2554:28 0.04561298
29 *2554:29 0.1282471
30 *2554:30 0.3507408
31 *2554:31 0.1634601
32 *2554:32 0.1634602
33 *2554:33 0.01947141
34 *2554:34 0.01947141
35 *2554:35 0.605428
36 *2554:36 0.02994926
37 *2554:37 0.03109279
38 *2554:38 0.7009101
39 *2554:39 0.03109165
40 *2554:40 0.04610088
41 *2554:41 0.03566939
42 *2554:42 0.03681292
43 *2554:43 0.0398335
44 *2554:44 0.0398335
45 *2554:45 0.2130124
46 *2554:46 0.2007928
47 *2554:47 0.1280708
48 *2554:48 0.03258862
49 *2554:49 0.07801729
50 *2554:50 0.07509473
51 *2554:51 0.04860273
52 *2554:52 0.01262806
53 *2554:53 0.006576771
54 *2554:54 0.1735178
55 *2554:55 0.1246186
56 *2554:56 0.1853811
57 *2554:57 0.1853811
58 *2554:58 0.1676578
59 *2554:59 0.2183371
60 *2554:60 0.08150394
61 *2554:61 0.08086523

*RES
0 *158:Y *2554:61 1
1 *2554:16 *263:A1 1
2 *2554:16 *2554:15 1.9
3 *2554:11 *206:A2 1
4 *2554:17 *2554:16 0.5187501
5 *2554:18 *2554:17 0.5
6 *2554:60 *2554:59 0.5
7 *2554:59 *2554:58 7.033036
8 *2554:59 *2554:18 2.147322
9 *2554:61 *2554:60 2.666071
10 *2554:58 *2554:57 0.5
11 *2554:57 *2554:56 10.80893
12 *2554:55 *2554:54 5.947322
13 *2554:56 *2554:55 0.5
14 *2554:53 *282:A2 1
15 *2554:53 *2554:52 0.1991667
16 *2554:54 *2554:53 0.5
17 *2554:54 *2554:51 2.147322
18 *2554:50 *275:A2 1
19 *2554:50 *2554:49 2.123214
20 *2554:51 *2554:50 0.5
21 *2554:39 *314:A2 1
22 *2554:49 *2554:48 0.5
23 *2554:48 *2554:47 1.333036
24 *2554:46 *2554:45 8.661608
25 *2554:47 *2554:46 0.5
26 *2554:47 *2554:38 3.8
27 *2554:45 *2554:44 0.5
28 *2554:45 *2554:40 0.5428572
29 *2554:44 *2554:43 1.851786
30 *2554:42 *2554:41 1.0375
31 *2554:43 *2554:42 0.5
32 *2554:41 *319:A4 1
33 *2554:37 *2554:36 1.0375
34 *2554:38 *2554:37 0.5
35 *2554:38 *2554:35 28.47589
36 *2554:36 *278:A4 1
37 *2554:35 *2554:34 0.5
38 *2554:34 *2554:33 1.0375
39 *2554:32 *2554:31 9.451786
40 *2554:33 *2554:32 0.5
41 *2554:30 *2554:29 3.8
42 *2554:30 *2554:23 11.37589
43 *2554:31 *2554:30 0.5
44 *2554:29 *221:A2 1
45 *2554:29 *2554:28 1.604464
46 *2554:23 *2554:22 0.5
47 *2554:22 *2554:21 2.9375
48 *2554:20 *2554:19 0.2325
49 *2554:21 *2554:20 0.5
50 *2554:19 *161:A1 1
51 *2554:28 *2554:27 0.5
52 *2554:27 *2554:26 4.023215
53 *2554:25 *2554:24 4.023214
54 *2554:26 *2554:25 0.5
55 *2554:24 *265:A5 1
56 *2554:40 *2554:39 1.083929
57 *2554:12 *2554:11 3.233036
58 *2554:13 *2554:12 0.5428572
59 *2554:15 *2554:14 0.5428572
60 *2554:14 *2554:13 5.428572

*END

*D_NET *2560 0.5109785 //LENGTH 5.954 LUMPCC 0 DR

*CONN
*I *73:Y O *L 0 *C 34.488 21.264
*I *80:A2 I *L 0.45541 *C 32.664 17.464
*N *2560:2 *C 32.664 17.477
*N *2560:3 *C 32.664 19.883
*N *2560:4 *C 32.678 19.896
*N *2560:5 *C 34.474 19.896
*N *2560:6 *C 34.488 19.910
*N *2560:7 *C 34.488 21.251

*CAP
0 *73:Y 0.001
1 *80:A2 0.001
2 *2560:2 0.119609
3 *2560:3 0.1207525
4 *2560:4 0.06970685
5 *2560:5 0.06970685
6 *2560:6 0.06517337
7 *2560:7 0.06402984

*RES
0 *73:Y *2560:7 1
1 *2560:2 *80:A2 1
2 *2560:3 *2560:2 4.294643
3 *2560:4 *2560:3 0.5
4 *2560:6 *2560:5 0.5
5 *2560:5 *2560:4 3.208929
6 *2560:7 *2560:6 2.394643

*END

*D_NET *2562 0.7854071 //LENGTH 8.611 LUMPCC 0 DR

*CONN
*I *71:Y O *L 0 *C 29.472 17.312
*I *73:A3 I *L 0.557478 *C 33.728 20.200
*I *86:A2 I *L 0.515513 *C 34.032 18.528
*N *2562:3 *C 34.032 18.541
*N *2562:4 *C 33.728 20.187
*N *2562:5 *C 33.728 18.984
*N *2562:6 *C 34.032 18.971
*N *2562:7 *C 34.019 18.984
*N *2562:8 *C 29.486 18.984
*N *2562:9 *C 29.472 18.971
*N *2562:10 *C 29.472 17.326

*CAP
0 *71:Y 0.001
1 *73:A3 0.001
2 *86:A2 0.001
3 *2562:3 0.01685879
4 *2562:4 0.08323359
5 *2562:5 0.09898908
6 *2562:6 0.03083525
7 *2562:7 0.2004413
8 *2562:8 0.2004413
9 *2562:9 0.07637564
10 *2562:10 0.07523211

*RES
0 *71:Y *2562:10 1
1 *2562:3 *86:A2 1
2 *2562:4 *73:A3 1
3 *2562:6 *2562:5 0.5428572
4 *2562:6 *2562:3 0.7660714
5 *2562:7 *2562:6 0.5
6 *2562:9 *2562:8 0.5
7 *2562:8 *2562:7 8.094644
8 *2562:10 *2562:9 2.9375
9 *2562:5 *2562:4 2.147322

*END

*D_NET *2564 0.6267999 //LENGTH 6.044 LUMPCC 0 DR

*CONN
*I *76:Y O *L 0 *C 37.224 6.064
*I *77:A3 I *L 0.557478 *C 37.528 9.864
*I *81:A4 I *L 0.537263 *C 37.832 10.928
*N *2564:3 *C 37.832 10.915
*N *2564:4 *C 37.832 9.878
*N *2564:5 *C 37.819 9.864
*N *2564:6 *C 37.528 9.682
*N *2564:7 *C 37.528 9.851
*N *2564:8 *C 37.528 9.864
*N *2564:9 *C 37.238 9.864
*N *2564:10 *C 37.224 9.851
*N *2564:11 *C 37.224 6.078

*CAP
0 *76:Y 0.001
1 *77:A3 0.001
2 *81:A4 0.001
3 *2564:3 0.08014814
4 *2564:4 0.08129166
5 *2564:5 0.0124822
6 *2564:6 0.01617235
7 *2564:7 0.01147075
8 *2564:8 0.02674343
9 *2564:9 0.0124822
10 *2564:10 0.1920763
11 *2564:11 0.1909328

*RES
0 *76:Y *2564:11 1
1 *2564:4 *2564:3 1.851786
2 *2564:5 *2564:4 0.5
3 *2564:3 *81:A4 1
4 *2564:7 *77:A3 1
5 *2564:7 *2564:6 0.2825
6 *2564:8 *2564:7 0.5
7 *2564:8 *2564:5 0.5187501
8 *2564:10 *2564:9 0.5
9 *2564:9 *2564:8 0.5187501
10 *2564:11 *2564:10 6.7375

*END

*D_NET *2569 2.964807 //LENGTH 44.673 LUMPCC 0 DR

*CONN
*I *85:Y O *L 0 *C 44.672 9.560
*I *79:A1 I *L 0.529859 *C 25.672 34.488
*N *2569:2 *C 25.672 34.487
*N *2569:3 *C 25.672 32.070
*N *2569:4 *C 25.686 32.056
*N *2569:5 *C 26.267 32.056
*N *2569:6 *C 26.280 32.043
*N *2569:7 *C 26.280 25.078
*N *2569:8 *C 26.294 25.064
*N *2569:9 *C 43.899 25.064
*N *2569:10 *C 43.912 25.050
*N *2569:11 *C 43.912 9.878
*N *2569:12 *C 43.925 9.864
*N *2569:13 *C 44.659 9.864
*N *2569:14 *C 44.672 9.851
*N *2569:15 *C 44.672 9.574

*CAP
0 *85:Y 0.001
1 *79:A1 0.001
2 *2569:2 0.1407213
3 *2569:3 0.1418648
4 *2569:4 0.02711535
5 *2569:5 0.02711545
6 *2569:6 0.2370504
7 *2569:7 0.2370505
8 *2569:8 0.4903018
9 *2569:9 0.4903018
10 *2569:10 0.5343027
11 *2569:11 0.5343025
12 *2569:12 0.03536481
13 *2569:13 0.03536471
14 *2569:14 0.01654707
15 *2569:15 0.01540353

*RES
0 *85:Y *2569:15 1
1 *2569:2 *79:A1 1
2 *2569:3 *2569:2 4.316964
3 *2569:4 *2569:3 0.5
4 *2569:5 *2569:4 1.0375
5 *2569:6 *2569:5 0.5
6 *2569:7 *2569:6 12.4375
7 *2569:8 *2569:7 0.5
8 *2569:10 *2569:9 0.5
9 *2569:9 *2569:8 31.4375
10 *2569:12 *2569:11 0.5
11 *2569:11 *2569:10 27.09464
12 *2569:14 *2569:13 0.5
13 *2569:13 *2569:12 1.308929
14 *2569:15 *2569:14 0.4946429

*END

*D_NET *2573 0.437375 //LENGTH 5.152 LUMPCC 0 DR

*CONN
*I *89:Y O *L 0 *C 15.944 44.064
*I *90:A3 I *L 0.557478 *C 15.336 46.648
*I *91:A3 I *L 0.539281 *C 17.160 45.736
*N *2573:3 *C 17.160 45.750
*N *2573:4 *C 17.160 46.027
*N *2573:5 *C 17.146 46.040
*N *2573:6 *C 15.336 46.635
*N *2573:7 *C 15.336 46.053
*N *2573:8 *C 15.350 46.040
*N *2573:9 *C 15.944 46.040
*N *2573:10 *C 15.944 46.027
*N *2573:11 *C 15.944 44.078

*CAP
0 *89:Y 0.001
1 *90:A3 0.001
2 *91:A3 0.001
3 *2573:3 0.01697039
4 *2573:4 0.01811392
5 *2573:5 0.05423278
6 *2573:6 0.02939446
7 *2573:7 0.03053799
8 *2573:8 0.02483662
9 *2573:9 0.08084843
10 *2573:10 0.09029198
11 *2573:11 0.08914845

*RES
0 *89:Y *2573:11 1
1 *2573:4 *2573:3 0.4946429
2 *2573:5 *2573:4 0.5
3 *2573:3 *91:A3 1
4 *2573:10 *2573:9 0.5
5 *2573:9 *2573:8 1.061607
6 *2573:9 *2573:5 2.147322
7 *2573:11 *2573:10 3.480357
8 *2573:7 *2573:6 1.0375
9 *2573:8 *2573:7 0.5
10 *2573:6 *90:A3 1

*END

*D_NET *2575 0.2248152 //LENGTH 2.767 LUMPCC 0 DR

*CONN
*I *94:Y O *L 0 *C 23.544 45.584
*I *95:A5 I *L 0.542358 *C 25.064 46.192
*N *2575:2 *C 25.064 46.178
*N *2575:3 *C 25.064 45.446
*N *2575:4 *C 25.050 45.432
*N *2575:5 *C 23.558 45.432
*N *2575:6 *C 23.544 45.432
*N *2575:7 *C 23.544 45.572

*CAP
0 *94:Y 0.001
1 *95:A5 0.001
2 *2575:2 0.0358735
3 *2575:3 0.03701704
4 *2575:4 0.06572202
5 *2575:5 0.06572202
6 *2575:6 0.009812101
7 *2575:7 0.00866857

*RES
0 *94:Y *2575:7 1
1 *2575:2 *95:A5 1
2 *2575:3 *2575:2 1.308929
3 *2575:4 *2575:3 0.5
4 *2575:6 *2575:5 0.5
5 *2575:5 *2575:4 2.666071
6 *2575:7 *2575:6 0.2325

*END

*D_NET *2577 0.5523635 //LENGTH 6.176 LUMPCC 0 DR

*CONN
*I *92:Y O *L 0 *C 21.568 44.064
*I *95:A1 I *L 0.484201 *C 24.274 46.040
*I *94:A3 I *L 0.557478 *C 22.784 46.648
*N *2577:3 *C 22.784 46.635
*N *2577:4 *C 22.784 46.040
*N *2577:5 *C 23.696 45.908
*N *2577:6 *C 23.696 46.040
*N *2577:7 *C 23.696 46.028
*N *2577:8 *C 23.683 46.040
*N *2577:9 *C 22.950 46.040
*N *2577:10 *C 22.936 46.027
*N *2577:11 *C 22.936 44.534
*N *2577:12 *C 22.922 44.520
*N *2577:13 *C 21.582 44.520
*N *2577:14 *C 21.568 44.507
*N *2577:15 *C 21.568 44.078

*CAP
0 *92:Y 0.001
1 *95:A1 0.03865629
2 *94:A3 0.001
3 *2577:3 0.0328199
4 *2577:4 0.04333507
5 *2577:5 0.01172698
6 *2577:6 0.04383993
7 *2577:7 0.00687129
8 *2577:8 0.03579785
9 *2577:9 0.03728037
10 *2577:10 0.07463722
11 *2577:11 0.06704462
12 *2577:12 0.06006875
13 *2577:13 0.06006875
14 *2577:14 0.01968
15 *2577:15 0.01853647

*RES
0 *92:Y *2577:15 1
1 *2577:10 *2577:9 0.5
2 *2577:10 *2577:4 0.2714286
3 *2577:9 *2577:8 1.308929
4 *2577:7 *2577:6 1
5 *2577:7 *2577:5 0.1991667
6 *2577:8 *2577:7 0.5
7 *2577:6 *95:A1 1.156
8 *2577:3 *94:A3 1
9 *2577:11 *2577:10 2.666071
10 *2577:12 *2577:11 0.5
11 *2577:14 *2577:13 0.5
12 *2577:13 *2577:12 2.394643
13 *2577:15 *2577:14 0.7660714
14 *2577:4 *2577:3 1.061607

*END

*D_NET *2581 0.2130736 //LENGTH 2.128 LUMPCC 0 DR

*CONN
*I *102:Y O *L 0 *C 23.835 32.208
*I *103:A5 I *L 0.542358 *C 23.696 34.032
*N *2581:2 *C 23.696 34.019
*N *2581:3 *C 23.696 32.221
*N *2581:4 *C 23.709 32.208

*CAP
0 *102:Y 0.009693178
1 *103:A5 0.001
2 *2581:2 0.09647646
3 *2581:3 0.09780489
4 *2581:4 0.008099051

*RES
0 *102:Y *2581:4 0.2116667
1 *2581:2 *103:A5 1
2 *2581:4 *2581:3 1
3 *2581:3 *2581:2 3.208929

*END

*D_NET *2582 0.9504301 //LENGTH 8.344 LUMPCC 0 DR

*CONN
*I *101:Y O *L 0 *C 25.824 29.472
*I *102:A3 I *L 0.557478 *C 24.608 33.272
*I *103:A3 I *L 0.539281 *C 23.848 34.488
*N *2582:3 *C 23.848 34.474
*N *2582:4 *C 23.848 32.373
*N *2582:5 *C 23.861 32.360
*N *2582:6 *C 24.608 33.259
*N *2582:7 *C 24.608 32.373
*N *2582:8 *C 24.608 32.360
*N *2582:9 *C 25.811 32.360
*N *2582:10 *C 25.824 32.346
*N *2582:11 *C 25.824 29.486

*CAP
0 *101:Y 0.001
1 *102:A3 0.001
2 *103:A3 0.001
3 *2582:3 0.1648108
4 *2582:4 0.1659543
5 *2582:5 0.03471162
6 *2582:6 0.06437833
7 *2582:7 0.06552185
8 *2582:8 0.0899367
9 *2582:9 0.05344604
10 *2582:10 0.154907
11 *2582:11 0.1537635

*RES
0 *101:Y *2582:11 1
1 *2582:10 *2582:9 0.5
2 *2582:9 *2582:8 2.147322
3 *2582:11 *2582:10 5.108929
4 *2582:7 *2582:6 1.580357
5 *2582:8 *2582:7 0.5
6 *2582:8 *2582:5 1.333036
7 *2582:6 *102:A3 1
8 *2582:4 *2582:3 3.751786
9 *2582:5 *2582:4 0.5
10 *2582:3 *103:A3 1

*END

*D_NET *2585 1.92295 //LENGTH 17.770 LUMPCC 0 DR

*CONN
*I *99:Y O *L 0 *C 23.848 30.536
*I *105:A3 I *L 0.455637 *C 29.320 18.984
*N *2585:2 *C 29.320 18.998
*N *2585:3 *C 29.320 19.883
*N *2585:4 *C 29.306 19.896
*N *2585:5 *C 23.710 19.896
*N *2585:6 *C 23.696 19.910
*N *2585:7 *C 23.696 24.304
*N *2585:8 *C 23.848 24.304
*N *2585:9 *C 23.848 30.523

*CAP
0 *99:Y 0.001
1 *105:A3 0.001
2 *2585:2 0.0486941
3 *2585:3 0.04983763
4 *2585:4 0.2051233
5 *2585:5 0.2051233
6 *2585:6 0.2780659
7 *2585:7 0.2873196
8 *2585:8 0.4285915
9 *2585:9 0.4181943

*RES
0 *99:Y *2585:9 1
1 *2585:2 *105:A3 1
2 *2585:3 *2585:2 1.580357
3 *2585:4 *2585:3 0.5
4 *2585:6 *2585:5 0.5
5 *2585:5 *2585:4 9.994644
6 *2585:9 *2585:8 11.10447
7 *2585:7 *2585:6 7.847322
8 *2585:8 *2585:7 0.2714286

*END

*D_NET *2589 3.673228 //LENGTH 40.718 LUMPCC 0 DR

*CONN
*I *167:Y O *L 0 *C 32.056 27.344
*I *47:A1 I *L 0.514394 *C 22.646 29.168
*I *61:A1 I *L 0.514394 *C 19.136 42.544
*I *59:A1 I *L 0.514394 *C 17.175 42.544
*I *109:A1 I *L 0.514394 *C 19.879 42.544
*I *63:A1 I *L 0.496377 *C 20.352 45.888
*I *106:A1 I *L 0.514394 *C 21.264 34.336
*I *49:A1 I *L 0.514394 *C 19.136 29.168
*I *51:A1 I *L 0.496377 *C 25.368 29.168
*N *2589:9 *C 25.368 29.155
*N *2589:10 *C 19.136 29.169
*N *2589:11 *C 19.136 29.624
*N *2589:12 *C 19.287 29.624
*N *2589:13 *C 19.302 29.624
*N *2589:14 *C 21.264 34.323
*N *2589:15 *C 21.264 33.894
*N *2589:16 *C 21.251 33.880
*N *2589:17 *C 20.352 45.876
*N *2589:18 *C 20.352 45.736
*N *2589:19 *C 20.338 45.736
*N *2589:20 *C 19.605 45.736
*N *2589:21 *C 19.592 45.723
*N *2589:22 *C 19.607 42.544
*N *2589:23 *C 19.592 42.558
*N *2589:24 *C 17.300 42.544
*N *2589:25 *C 17.313 42.544
*N *2589:26 *C 17.464 42.544
*N *2589:27 *C 17.464 42.406
*N *2589:28 *C 17.477 42.392
*N *2589:29 *C 19.136 42.531
*N *2589:30 *C 19.136 42.392
*N *2589:31 *C 19.287 42.392
*N *2589:32 *C 19.288 42.392
*N *2589:33 *C 19.579 42.392
*N *2589:34 *C 19.592 42.366
*N *2589:35 *C 19.592 33.894
*N *2589:36 *C 19.605 33.880
*N *2589:37 *C 19.592 33.867
*N *2589:38 *C 19.592 29.638
*N *2589:39 *C 19.592 29.624
*N *2589:40 *C 19.883 29.624
*N *2589:41 *C 19.896 29.611
*N *2589:42 *C 19.896 29.030
*N *2589:43 *C 19.910 29.016
*N *2589:44 *C 22.771 29.168
*N *2589:45 *C 22.784 29.155
*N *2589:46 *C 22.784 29.016
*N *2589:47 *C 22.784 29.016
*N *2589:48 *C 25.355 29.016
*N *2589:49 *C 25.368 28.990
*N *2589:50 *C 25.368 28.117
*N *2589:51 *C 25.382 28.104
*N *2589:52 *C 32.043 28.104
*N *2589:53 *C 32.056 28.091
*N *2589:54 *C 32.056 27.358

*CAP
0 *167:Y 0.001
1 *47:A1 0.01128183
2 *61:A1 0.001
3 *59:A1 0.0143456
4 *109:A1 0.02333532
5 *63:A1 0.001
6 *106:A1 0.001
7 *49:A1 0.001
8 *51:A1 0.001
9 *2589:9 0.008063307
10 *2589:10 0.0303885
11 *2589:11 0.04111716
12 *2589:12 0.006027057
13 *2589:13 0.01367653
14 *2589:14 0.02471587
15 *2589:15 0.0258594
16 *2589:16 0.06733891
17 *2589:17 0.01167638
18 *2589:18 0.01281991
19 *2589:19 0.03318155
20 *2589:20 0.03318155
21 *2589:21 0.1999057
22 *2589:22 0.02174119
23 *2589:23 0.2111476
24 *2589:24 0.01275147
25 *2589:25 0.006465546
26 *2589:26 0.01887633
27 *2589:27 0.00903762
28 *2589:28 0.0805495
29 *2589:29 0.01136189
30 *2589:30 0.02212041
31 *2589:31 0.00605692
32 *2589:32 0.0964538
33 *2589:33 0.01412526
34 *2589:34 0.523223
35 *2589:35 0.512166
36 *2589:36 0.06555998
37 *2589:37 0.1399423
38 *2589:38 0.1399423
39 *2589:39 0.0291322
40 *2589:40 0.01367653
41 *2589:41 0.03379703
42 *2589:42 0.03379703
43 *2589:43 0.1112503
44 *2589:44 0.009687705
45 *2589:45 0.0129386
46 *2589:46 0.01275369
47 *2589:47 0.2182217
48 *2589:48 0.1051924
49 *2589:49 0.06497763
50 *2589:50 0.05399176
51 *2589:51 0.2305146
52 *2589:52 0.2305146
53 *2589:53 0.02974485
54 *2589:54 0.02860132

*RES
0 *167:Y *2589:54 1
1 *2589:9 *51:A1 1
2 *2589:50 *2589:49 1.558036
3 *2589:51 *2589:50 0.5
4 *2589:53 *2589:52 0.5
5 *2589:52 *2589:51 11.89464
6 *2589:54 *2589:53 1.308929
7 *2589:49 *2589:48 0.5
8 *2589:49 *2589:9 0.2758334
9 *2589:48 *2589:47 4.590179
10 *2589:46 *2589:45 0.2325
11 *2589:47 *2589:46 0.5
12 *2589:47 *2589:43 5.133036
13 *2589:44 *47:A1 0.2083333
14 *2589:45 *2589:44 1
15 *2589:15 *2589:14 0.7660714
16 *2589:16 *2589:15 0.5
17 *2589:14 *106:A1 1
18 *2589:42 *2589:41 1.0375
19 *2589:43 *2589:42 0.5
20 *2589:41 *2589:40 0.5
21 *2589:40 *2589:39 0.5187501
22 *2589:21 *2589:20 0.5
23 *2589:20 *2589:19 1.308929
24 *2589:18 *2589:17 0.2325
25 *2589:19 *2589:18 0.5
26 *2589:17 *63:A1 1
27 *2589:22 *109:A1 0.544
28 *2589:23 *2589:22 1
29 *2589:23 *2589:21 5.651786
30 *2589:35 *2589:34 15.12947
31 *2589:36 *2589:35 0.5
32 *2589:36 *2589:16 2.9375
33 *2589:37 *2589:36 0.5
34 *2589:39 *2589:38 0.5
35 *2589:39 *2589:13 0.5187501
36 *2589:38 *2589:37 7.551786
37 *2589:34 *2589:33 0.5
38 *2589:34 *2589:23 0.3191667
39 *2589:33 *2589:32 0.5187501
40 *2589:31 *2589:30 0.2696429
41 *2589:32 *2589:31 0.5
42 *2589:32 *2589:28 3.233036
43 *2589:29 *61:A1 1
44 *2589:12 *2589:11 0.2696429
45 *2589:13 *2589:12 0.5
46 *2589:10 *49:A1 1
47 *2589:27 *2589:26 0.2473214
48 *2589:28 *2589:27 0.5
49 *2589:24 *59:A1 0.2083333
50 *2589:25 *2589:24 1
51 *2589:26 *2589:25 0.2696429
52 *2589:11 *2589:10 0.8125
53 *2589:30 *2589:29 0.2473214

*END

*D_NET *2594 0.6466078 //LENGTH 7.103 LUMPCC 0 DR

*CONN
*I *49:Y O *L 0 *C 20.504 28.864
*I *108:A2 I *L 0.537813 *C 19.440 25.976
*I *50:A I *L 0.582888 *C 21.416 25.976
*N *2594:3 *C 21.416 25.963
*N *2594:4 *C 21.416 25.382
*N *2594:5 *C 21.402 25.368
*N *2594:6 *C 19.440 25.963
*N *2594:7 *C 19.440 25.382
*N *2594:8 *C 19.454 25.368
*N *2594:9 *C 20.504 25.368
*N *2594:10 *C 20.504 25.382
*N *2594:11 *C 20.504 28.863

*CAP
0 *49:Y 0.001
1 *108:A2 0.001
2 *50:A 0.001
3 *2594:3 0.03334019
4 *2594:4 0.03448372
5 *2594:5 0.03806589
6 *2594:6 0.03337752
7 *2594:7 0.03452105
8 *2594:8 0.04403811
9 *2594:9 0.08388303
10 *2594:10 0.1715209
11 *2594:11 0.1703774

*RES
0 *49:Y *2594:11 1
1 *2594:4 *2594:3 1.0375
2 *2594:5 *2594:4 0.5
3 *2594:3 *50:A 1
4 *2594:10 *2594:9 0.5
5 *2594:9 *2594:8 1.875893
6 *2594:9 *2594:5 1.604464
7 *2594:11 *2594:10 6.216965
8 *2594:7 *2594:6 1.0375
9 *2594:8 *2594:7 0.5
10 *2594:6 *108:A2 1

*END

*D_NET *2596 0.90559 //LENGTH 10.489 LUMPCC 0 DR

*CONN
*I *109:Y O *L 0 *C 21.264 42.240
*I *110:A5 I *L 0.542358 *C 12.904 44.064
*N *2596:2 *C 12.904 44.050
*N *2596:3 *C 12.904 43.622
*N *2596:4 *C 12.918 43.608
*N *2596:5 *C 21.251 43.608
*N *2596:6 *C 21.264 43.595
*N *2596:7 *C 21.264 42.241

*CAP
0 *109:Y 0.001
1 *110:A5 0.001
2 *2596:2 0.03175293
3 *2596:3 0.03289646
4 *2596:4 0.3552675
5 *2596:5 0.3552675
6 *2596:6 0.06477457
7 *2596:7 0.06363105

*RES
0 *109:Y *2596:7 1
1 *2596:2 *110:A5 1
2 *2596:3 *2596:2 0.7660714
3 *2596:4 *2596:3 0.5
4 *2596:6 *2596:5 0.5
5 *2596:5 *2596:4 14.88036
6 *2596:7 *2596:6 2.416964

*END

*D_NET *2597 0.7222779 //LENGTH 9.418 LUMPCC 0 DR

*CONN
*I *63:Y O *L 0 *C 18.680 45.584
*I *110:A4 I *L 0.514778 *C 13.360 44.368
*I *64:A3 I *L 0.474994 *C 11.384 44.368
*N *2597:3 *C 11.384 44.355
*N *2597:4 *C 11.384 44.216
*N *2597:5 *C 11.398 44.216
*N *2597:6 *C 13.360 44.355
*N *2597:7 *C 13.360 44.216
*N *2597:8 *C 13.360 44.216
*N *2597:9 *C 18.666 44.216
*N *2597:10 *C 18.680 44.230
*N *2597:11 *C 18.680 45.571

*CAP
0 *63:Y 0.001
1 *110:A4 0.001
2 *64:A3 0.001
3 *2597:3 0.009001235
4 *2597:4 0.01014477
5 *2597:5 0.07584837
6 *2597:6 0.01306209
7 *2597:7 0.01420562
8 *2597:8 0.2842229
9 *2597:9 0.2065955
10 *2597:10 0.05367053
11 *2597:11 0.052527

*RES
0 *63:Y *2597:11 1
1 *2597:10 *2597:9 0.5
2 *2597:9 *2597:8 9.475893
3 *2597:11 *2597:10 2.394643
4 *2597:7 *2597:6 0.2325
5 *2597:8 *2597:7 0.5
6 *2597:8 *2597:5 3.504464
7 *2597:6 *110:A4 1
8 *2597:4 *2597:3 0.2325
9 *2597:5 *2597:4 0.5
10 *2597:3 *64:A3 1

*END

*D_NET *2599 0.7489509 //LENGTH 8.429 LUMPCC 0 DR

*CONN
*I *61:Y O *L 0 *C 17.768 42.240
*I *111:A2 I *L 0.537813 *C 13.056 42.696
*I *62:A I *L 0.582888 *C 14.424 44.216
*N *2599:3 *C 14.424 44.203
*N *2599:4 *C 13.056 42.710
*N *2599:5 *C 13.056 43.291
*N *2599:6 *C 13.070 43.304
*N *2599:7 *C 14.411 43.304
*N *2599:8 *C 14.424 43.318
*N *2599:9 *C 14.424 43.912
*N *2599:10 *C 14.438 43.912
*N *2599:11 *C 17.755 43.912
*N *2599:12 *C 17.768 43.899
*N *2599:13 *C 17.768 42.241

*CAP
0 *61:Y 0.001
1 *111:A2 0.001
2 *62:A 0.001
3 *2599:3 0.01155063
4 *2599:4 0.03311823
5 *2599:5 0.03426176
6 *2599:6 0.0644744
7 *2599:7 0.0644744
8 *2599:8 0.02495001
9 *2599:9 0.0394232
10 *2599:10 0.1526379
11 *2599:11 0.1526379
12 *2599:12 0.08478294
13 *2599:13 0.08363942

*RES
0 *61:Y *2599:13 1
1 *2599:3 *62:A 1
2 *2599:9 *2599:8 1.061607
3 *2599:9 *2599:3 0.51875
4 *2599:10 *2599:9 0.5
5 *2599:12 *2599:11 0.5
6 *2599:11 *2599:10 5.923215
7 *2599:13 *2599:12 2.959822
8 *2599:8 *2599:7 0.5
9 *2599:7 *2599:6 2.394643
10 *2599:5 *2599:4 1.0375
11 *2599:6 *2599:5 0.5
12 *2599:4 *111:A2 1

*END

*D_NET *2601 0.2862559 //LENGTH 3.345 LUMPCC 0 DR

*CONN
*I *112:Y O *L 0 *C 43.608 8.800
*I *113:A5 I *L 0.542358 *C 43.304 6.064
*N *2601:2 *C 43.304 6.078
*N *2601:3 *C 43.304 7.723
*N *2601:4 *C 43.318 7.736
*N *2601:5 *C 43.595 7.736
*N *2601:6 *C 43.608 7.750
*N *2601:7 *C 43.608 8.799

*CAP
0 *112:Y 0.001
1 *113:A5 0.001
2 *2601:2 0.07938131
3 *2601:3 0.08052483
4 *2601:4 0.01627016
5 *2601:5 0.01627016
6 *2601:6 0.04647648
7 *2601:7 0.04533294

*RES
0 *112:Y *2601:7 1
1 *2601:2 *113:A5 1
2 *2601:3 *2601:2 2.9375
3 *2601:4 *2601:3 0.5
4 *2601:6 *2601:5 0.5
5 *2601:5 *2601:4 0.4946429
6 *2601:7 *2601:6 1.874107

*END

*D_NET *2602 0.5250414 //LENGTH 6.478 LUMPCC 0 DR

*CONN
*I *69:Y O *L 0 *C 39.960 7.888
*I *70:A3 I *L 0.474994 *C 41.328 5.760
*I *113:A4 I *L 0.514778 *C 42.848 5.760
*N *2602:3 *C 42.848 5.747
*N *2602:4 *C 42.848 5.317
*N *2602:5 *C 42.835 5.304
*N *2602:6 *C 41.342 5.304
*N *2602:7 *C 41.328 5.317
*N *2602:8 *C 41.328 5.760
*N *2602:9 *C 41.328 6.506
*N *2602:10 *C 41.315 6.520
*N *2602:11 *C 39.974 6.520
*N *2602:12 *C 39.960 6.534
*N *2602:13 *C 39.960 7.875

*CAP
0 *69:Y 0.001
1 *70:A3 0.001
2 *113:A4 0.001
3 *2602:3 0.02189101
4 *2602:4 0.02303454
5 *2602:5 0.06986122
6 *2602:6 0.06986122
7 *2602:7 0.02151119
8 *2602:8 0.05872552
9 *2602:9 0.03657883
10 *2602:10 0.05876082
11 *2602:11 0.05876082
12 *2602:12 0.05209991
13 *2602:13 0.05095637

*RES
0 *69:Y *2602:13 1
1 *2602:8 *70:A3 1
2 *2602:8 *2602:7 0.7901786
3 *2602:7 *2602:6 0.5
4 *2602:6 *2602:5 2.666072
5 *2602:4 *2602:3 0.7660714
6 *2602:5 *2602:4 0.5
7 *2602:3 *113:A4 1
8 *2602:9 *2602:8 1.333036
9 *2602:10 *2602:9 0.5
10 *2602:12 *2602:11 0.5
11 *2602:11 *2602:10 2.394643
12 *2602:13 *2602:12 2.394643

*END

*D_NET *2605 0.6225446 //LENGTH 7.482 LUMPCC 0 DR

*CONN
*I *66:Y O *L 0 *C 37.984 6.064
*I *114:A1 I *L 0.601783 *C 38.592 5.760
*I *113:A1 I *L 0.484201 *C 42.514 5.912
*I *70:A1 I *L 0.502229 *C 41.799 5.912
*I *113:A3 I *L 0.539281 *C 43.152 5.608
*N *2605:5 *C 43.152 5.426
*N *2605:6 *C 43.152 5.596
*N *2605:7 *C 43.139 5.608
*N *2605:8 *C 41.799 5.912
*N *2605:9 *C 41.784 5.899
*N *2605:10 *C 41.784 5.622
*N *2605:11 *C 41.784 5.608
*N *2605:12 *C 38.592 5.748
*N *2605:13 *C 38.592 5.608
*N *2605:14 *C 38.592 5.608
*N *2605:15 *C 37.998 5.608
*N *2605:16 *C 37.984 5.622
*N *2605:17 *C 37.984 6.051

*CAP
0 *66:Y 0.001
1 *114:A1 0.001
2 *113:A1 0.04733673
3 *70:A1 0.001
4 *113:A3 0.001
5 *2605:5 0.01302973
6 *2605:6 0.008328127
7 *2605:7 0.05468931
8 *2605:8 0.04441417
9 *2605:9 0.02436686
10 *2605:10 0.02551039
11 *2605:11 0.1763728
12 *2605:12 0.009329205
13 *2605:13 0.01047274
14 *2605:14 0.144079
15 *2605:15 0.02239546
16 *2605:16 0.01968184
17 *2605:17 0.01853831

*RES
0 *66:Y *2605:17 1
1 *2605:6 *113:A3 1
2 *2605:6 *2605:5 0.2825
3 *2605:7 *2605:6 0.5
4 *2605:10 *2605:9 0.4946429
5 *2605:11 *2605:10 0.5
6 *2605:11 *2605:7 2.41875
7 *2605:9 *2605:8 1
8 *2605:13 *2605:12 0.2325
9 *2605:14 *2605:13 0.5
10 *2605:14 *2605:11 5.700001
11 *2605:12 *114:A1 1
12 *2605:16 *2605:15 0.5
13 *2605:15 *2605:14 1.061607
14 *2605:17 *2605:16 0.7660714
15 *2605:8 *113:A1 1.4306
16 *2605:8 *70:A1 0.001

*END

*D_NET *2608 0.270189 //LENGTH 2.585 LUMPCC 0 DR

*CONN
*I *115:Y O *L 0 *C 30.536 21.264
*I *116:A5 I *L 0.542358 *C 31.296 22.784
*N *2608:2 *C 31.296 22.771
*N *2608:3 *C 31.296 21.430
*N *2608:4 *C 31.283 21.416
*N *2608:5 *C 30.550 21.416
*N *2608:6 *C 30.536 21.402
*N *2608:7 *C 30.536 21.265

*CAP
0 *115:Y 0.001
1 *116:A5 0.001
2 *2608:2 0.08896496
3 *2608:3 0.09010848
4 *2608:4 0.03647423
5 *2608:5 0.03647423
6 *2608:6 0.00865529
7 *2608:7 0.007511759

*RES
0 *115:Y *2608:7 1
1 *2608:2 *116:A5 1
2 *2608:3 *2608:2 2.394643
3 *2608:4 *2608:3 0.5
4 *2608:6 *2608:5 0.5
5 *2608:5 *2608:4 1.308929
6 *2608:7 *2608:6 0.2455357

*END

*D_NET *2609 0.575604 //LENGTH 6.055 LUMPCC 0 DR

*CONN
*I *57:Y O *L 0 *C 32.664 22.176
*I *116:A4 I *L 0.514778 *C 31.752 22.480
*I *58:A3 I *L 0.474994 *C 32.360 25.824
*N *2609:3 *C 32.360 25.811
*N *2609:4 *C 32.360 25.064
*N *2609:5 *C 32.512 25.064
*N *2609:6 *C 31.752 22.494
*N *2609:7 *C 31.752 23.227
*N *2609:8 *C 31.766 23.240
*N *2609:9 *C 32.498 23.240
*N *2609:10 *C 32.512 23.240
*N *2609:11 *C 32.664 23.240
*N *2609:12 *C 32.664 22.190

*CAP
0 *57:Y 0.001
1 *116:A4 0.001
2 *58:A3 0.001
3 *2609:3 0.03595091
4 *2609:4 0.04638319
5 *2609:5 0.09461951
6 *2609:6 0.04799106
7 *2609:7 0.04913459
8 *2609:8 0.03394333
9 *2609:9 0.03394333
10 *2609:10 0.09277689
11 *2609:11 0.0741149
12 *2609:12 0.06374621

*RES
0 *57:Y *2609:12 1
1 *2609:12 *2609:11 1.875893
2 *2609:3 *58:A3 1
3 *2609:10 *2609:9 0.5
4 *2609:10 *2609:5 3.257143
5 *2609:9 *2609:8 1.308929
6 *2609:7 *2609:6 1.308929
7 *2609:8 *2609:7 0.5
8 *2609:6 *116:A4 1
9 *2609:4 *2609:3 1.333036
10 *2609:5 *2609:4 0.2714286
11 *2609:11 *2609:10 0.2714286

*END

*D_NET *2610 0.710807 //LENGTH 7.338 LUMPCC 0 DR

*CONN
*I *56:Y O *L 0 *C 31.296 19.440
*I *116:A2 I *L 0.515513 *C 31.904 21.872
*I *58:A2 I *L 0.54421 *C 32.056 25.216
*N *2610:3 *C 32.043 25.216
*N *2610:4 *C 31.904 25.216
*N *2610:5 *C 31.904 21.872
*N *2610:6 *C 31.904 21.720
*N *2610:7 *C 32.056 21.720
*N *2610:8 *C 32.056 19.910
*N *2610:9 *C 32.043 19.896
*N *2610:10 *C 31.309 19.896
*N *2610:11 *C 31.296 19.883
*N *2610:12 *C 31.296 19.454

*CAP
0 *56:Y 0.001
1 *116:A2 0.001
2 *58:A2 0.001
3 *2610:3 0.006003255
4 *2610:4 0.1700389
5 *2610:5 0.1684128
6 *2610:6 0.01781568
7 *2610:7 0.1053924
8 *2610:8 0.09602007
9 *2610:9 0.03434963
10 *2610:10 0.03434963
11 *2610:11 0.03828409
12 *2610:12 0.03714056

*RES
0 *56:Y *2610:12 1
1 *2610:3 *58:A2 1
2 *2610:5 *116:A2 1
3 *2610:5 *2610:4 5.971429
4 *2610:8 *2610:7 3.233036
5 *2610:9 *2610:8 0.5
6 *2610:11 *2610:10 0.5
7 *2610:10 *2610:9 1.308929
8 *2610:12 *2610:11 0.7660714
9 *2610:6 *2610:5 0.2714286
10 *2610:4 *2610:3 0.2473214
11 *2610:7 *2610:6 0.2714286

*END

*D_NET *2611 0.8962341 //LENGTH 9.276 LUMPCC 0 DR

*CONN
*I *55:Y O *L 0 *C 29.776 16.552
*I *117:A2 I *L 0.537813 *C 29.472 12.628
*I *56:A I *L 0.582888 *C 30.962 19.288
*N *2611:3 *C 29.776 16.370
*N *2611:4 *C 30.247 19.288
*N *2611:5 *C 30.232 19.274
*N *2611:6 *C 30.232 16.566
*N *2611:7 *C 30.219 16.552
*N *2611:8 *C 29.333 12.600
*N *2611:9 *C 29.320 12.614
*N *2611:10 *C 29.320 15.944
*N *2611:11 *C 29.472 15.944
*N *2611:12 *C 29.472 16.538
*N *2611:13 *C 29.486 16.552
*N *2611:14 *C 29.776 16.552
*N *2611:15 *C 29.776 16.540

*CAP
0 *55:Y 0.001
1 *117:A2 0.01743574
2 *56:A 0.03831869
3 *2611:3 0.01726459
4 *2611:4 0.03672456
5 *2611:5 0.1549654
6 *2611:6 0.1547805
7 *2611:7 0.02029126
8 *2611:8 0.01584161
9 *2611:9 0.1434362
10 *2611:10 0.1524297
11 *2611:11 0.04503391
12 *2611:12 0.03585558
13 *2611:13 0.01372632
14 *2611:14 0.03579661
15 *2611:15 0.01333348

*RES
0 *55:Y *2611:15 1
1 *2611:6 *2611:5 4.837501
2 *2611:7 *2611:6 0.5
3 *2611:4 *56:A 1.43
4 *2611:5 *2611:4 1
5 *2611:15 *2611:14 0.5
6 *2611:15 *2611:3 0.2825
7 *2611:14 *2611:13 0.5187501
8 *2611:14 *2611:7 0.7901786
9 *2611:12 *2611:11 1.061607
10 *2611:13 *2611:12 0.5
11 *2611:8 *117:A2 0.2325
12 *2611:9 *2611:8 1
13 *2611:10 *2611:9 5.947322
14 *2611:11 *2611:10 0.2714286

*END

*D_NET *2613 3.831513 //LENGTH 53.938 LUMPCC 0 DR

*CONN
*I *394:Q O *L 0 *C 13.512 25.672
*I *348:A2 I *L 0.501039 *C 14.424 42.392
*I *59:A2 I *L 0.52073 *C 17.008 42.848
*I *327:A6 I *L 0.609639 *C 27.192 43.152
*I *379:A4 I *L 0.569168 *C 20.504 22.784
*I *380:A2 I *L 0.501039 *C 23.544 15.640
*N *2613:6 *C 13.512 25.490
*N *2613:7 *C 23.544 15.458
*N *2613:8 *C 23.544 15.628
*N *2613:9 *C 23.530 15.640
*N *2613:10 *C 20.518 15.640
*N *2613:11 *C 20.504 15.654
*N *2613:12 *C 20.504 22.758
*N *2613:13 *C 20.504 22.924
*N *2613:14 *C 20.491 22.936
*N *2613:15 *C 19.302 22.936
*N *2613:16 *C 19.288 22.950
*N *2613:17 *C 19.288 25.659
*N *2613:18 *C 19.274 25.672
*N *2613:19 *C 27.192 43.166
*N *2613:20 *C 27.192 43.607
*N *2613:21 *C 27.191 43.608
*N *2613:22 *C 21.733 43.608
*N *2613:23 *C 21.720 43.595
*N *2613:24 *C 21.720 43.318
*N *2613:25 *C 21.707 43.304
*N *2613:26 *C 17.174 43.304
*N *2613:27 *C 17.160 43.291
*N *2613:28 *C 17.160 42.406
*N *2613:29 *C 17.148 42.392
*N *2613:30 *C 17.008 42.835
*N *2613:31 *C 17.008 42.406
*N *2613:32 *C 17.021 42.392
*N *2613:33 *C 14.424 42.210
*N *2613:34 *C 14.424 42.380
*N *2613:35 *C 14.438 42.392
*N *2613:36 *C 14.424 42.379
*N *2613:37 *C 14.424 25.686
*N *2613:38 *C 14.424 25.672
*N *2613:39 *C 13.526 25.672
*N *2613:40 *C 13.512 25.660

*CAP
0 *394:Q 0.001
1 *348:A2 0.001
2 *59:A2 0.001
3 *327:A6 0.001
4 *379:A4 0.001
5 *380:A2 0.001
6 *2613:6 0.01002838
7 *2613:7 0.01733319
8 *2613:8 0.01263159
9 *2613:9 0.1087635
10 *2613:10 0.1087635
11 *2613:11 0.2950942
12 *2613:12 0.3032798
13 *2613:13 0.007550105
14 *2613:14 0.05741736
15 *2613:15 0.05741746
16 *2613:16 0.09057058
17 *2613:17 0.09057058
18 *2613:18 0.1687248
19 *2613:19 0.02966026
20 *2613:20 0.03080379
21 *2613:21 0.2231146
22 *2613:22 0.2231147
23 *2613:23 0.01157892
24 *2613:24 0.01157907
25 *2613:25 0.1393022
26 *2613:26 0.1393022
27 *2613:27 0.0331371
28 *2613:28 0.03313696
29 *2613:29 0.009764659
30 *2613:30 0.0335083
31 *2613:31 0.03465184
32 *2613:32 0.1273659
33 *2613:33 0.01928205
34 *2613:34 0.01458045
35 *2613:35 0.1140434
36 *2613:36 0.5177251
37 *2613:37 0.5177251
38 *2613:38 0.1995843
39 *2613:39 0.02908055
40 *2613:40 0.005326786

*RES
0 *394:Q *2613:40 1
1 *2613:12 *379:A4 1
2 *2613:12 *2613:11 12.68661
3 *2613:11 *2613:10 0.5
4 *2613:10 *2613:9 5.380358
5 *2613:8 *380:A2 1
6 *2613:8 *2613:7 0.2825
7 *2613:9 *2613:8 0.5
8 *2613:29 *2613:28 0.5
9 *2613:28 *2613:27 1.580357
10 *2613:27 *2613:26 0.5
11 *2613:26 *2613:25 8.094644
12 *2613:24 *2613:23 0.4946429
13 *2613:25 *2613:24 0.5
14 *2613:22 *2613:21 9.745537
15 *2613:23 *2613:22 0.5
16 *2613:20 *2613:19 0.7883929
17 *2613:21 *2613:20 0.5
18 *2613:19 *327:A6 1
19 *2613:31 *2613:30 0.7660714
20 *2613:32 *2613:31 0.5
21 *2613:32 *2613:29 0.2116667
22 *2613:30 *59:A2 1
23 *2613:13 *2613:12 0.2758334
24 *2613:14 *2613:13 0.5
25 *2613:15 *2613:14 2.123214
26 *2613:16 *2613:15 0.5
27 *2613:18 *2613:17 0.5
28 *2613:17 *2613:16 4.8375
29 *2613:34 *348:A2 1
30 *2613:34 *2613:33 0.2825
31 *2613:35 *2613:34 0.5
32 *2613:35 *2613:32 4.6125
33 *2613:36 *2613:35 0.5
34 *2613:38 *2613:37 0.5
35 *2613:38 *2613:18 8.661608
36 *2613:37 *2613:36 29.80893
37 *2613:40 *2613:39 0.5
38 *2613:40 *2613:6 0.2825
39 *2613:39 *2613:38 1.604464

*END

*D_NET *2616 4.075818 //LENGTH 44.508 LUMPCC 0 DR

*CONN
*I *397:Q O *L 0 *C 16.400 14.424
*I *392:A2 I *L 0.501039 *C 17.464 12.296
*I *391:A4 I *L 0.569168 *C 17.616 16.096
*I *109:A2 I *L 0.52073 *C 20.048 42.848
*I *317:A2 I *L 0.466516 *C 23.367 42.721
*I *351:A2 I *L 0.501039 *C 20.048 34.488
*N *2616:6 *C 20.048 34.306
*N *2616:7 *C 20.048 34.476
*N *2616:8 *C 20.035 34.488
*N *2616:9 *C 23.103 42.696
*N *2616:10 *C 23.088 42.683
*N *2616:11 *C 23.088 41.797
*N *2616:12 *C 23.075 41.784
*N *2616:13 *C 20.048 42.835
*N *2616:14 *C 20.048 41.797
*N *2616:15 *C 20.048 41.784
*N *2616:16 *C 19.302 41.784
*N *2616:17 *C 19.288 41.771
*N *2616:18 *C 19.288 34.502
*N *2616:19 *C 19.288 34.488
*N *2616:20 *C 16.413 34.488
*N *2616:21 *C 16.400 34.474
*N *2616:22 *C 16.400 26.736
*N *2616:23 *C 16.248 26.736
*N *2616:24 *C 16.248 18.832
*N *2616:25 *C 16.400 18.832
*N *2616:26 *C 17.616 16.082
*N *2616:27 *C 17.616 13.816
*N *2616:28 *C 17.464 12.297
*N *2616:29 *C 17.464 13.816
*N *2616:30 *C 17.451 13.816
*N *2616:31 *C 16.413 13.816
*N *2616:32 *C 16.400 13.830
*N *2616:33 *C 16.400 14.424

*CAP
0 *397:Q 0.001
1 *392:A2 0.001
2 *391:A4 0.001
3 *109:A2 0.001
4 *317:A2 0.01797862
5 *351:A2 0.001
6 *2616:6 0.017399
7 *2616:7 0.0126974
8 *2616:8 0.02943353
9 *2616:9 0.0163845
10 *2616:10 0.04315189
11 *2616:11 0.04296698
12 *2616:12 0.1468832
13 *2616:13 0.06469323
14 *2616:14 0.06583676
15 *2616:15 0.1878559
16 *2616:16 0.03919368
17 *2616:17 0.4436314
18 *2616:18 0.4436314
19 *2616:19 0.1286661
20 *2616:20 0.09745354
21 *2616:21 0.297907
22 *2616:22 0.30716
23 *2616:23 0.3419928
24 *2616:24 0.3416625
25 *2616:25 0.1842829
26 *2616:26 0.1573926
27 *2616:27 0.167416
28 *2616:28 0.08549386
29 *2616:29 0.09373821
30 *2616:30 0.03895903
31 *2616:31 0.03895903
32 *2616:32 0.02100066
33 *2616:33 0.1969962

*RES
0 *397:Q *2616:33 1
1 *2616:11 *2616:10 1.580357
2 *2616:12 *2616:11 0.5
3 *2616:9 *317:A2 0.5280001
4 *2616:10 *2616:9 1
5 *2616:14 *2616:13 1.851786
6 *2616:15 *2616:14 0.5
7 *2616:15 *2616:12 5.404465
8 *2616:13 *109:A2 1
9 *2616:7 *351:A2 1
10 *2616:7 *2616:6 0.2825
11 *2616:8 *2616:7 0.5
12 *2616:17 *2616:16 0.5
13 *2616:16 *2616:15 1.333036
14 *2616:18 *2616:17 12.98036
15 *2616:19 *2616:18 0.5
16 *2616:19 *2616:8 1.333036
17 *2616:26 *391:A4 1
18 *2616:28 *392:A2 1
19 *2616:33 *2616:32 1.061607
20 *2616:33 *2616:25 7.871428
21 *2616:29 *2616:28 2.7125
22 *2616:29 *2616:27 0.2714286
23 *2616:30 *2616:29 0.5
24 *2616:32 *2616:31 0.5
25 *2616:31 *2616:30 1.851786
26 *2616:21 *2616:20 0.5
27 *2616:20 *2616:19 5.133036
28 *2616:24 *2616:23 14.11429
29 *2616:25 *2616:24 0.2714286
30 *2616:23 *2616:22 0.2714286
31 *2616:22 *2616:21 13.81875
32 *2616:27 *2616:26 4.047322

*END

*D_NET *2620 3.868913 //LENGTH 38.151 LUMPCC 0 DR

*CONN
*I *409:Q O *L 0 *C 22.176 14.424
*I *391:A2 I *L 0.501039 *C 17.464 15.640
*I *390:A4 I *L 0.569168 *C 23.544 13.968
*I *355:A2 I *L 0.501039 *C 20.048 32.360
*I *505:A6 I *L 0.609639 *C 27.192 33.728
*I *106:A2 I *L 0.52073 *C 21.515 34.032
*N *2620:6 *C 21.568 34.032
*N *2620:7 *C 21.568 34.019
*N *2620:8 *C 27.192 33.727
*N *2620:9 *C 27.192 33.273
*N *2620:10 *C 27.191 33.272
*N *2620:11 *C 20.048 32.373
*N *2620:12 *C 20.048 33.259
*N *2620:13 *C 20.062 33.272
*N *2620:14 *C 21.568 33.272
*N *2620:15 *C 21.568 33.272
*N *2620:16 *C 21.568 29.016
*N *2620:17 *C 22.328 29.016
*N *2620:18 *C 22.328 14.424
*N *2620:19 *C 23.544 13.968
*N *2620:20 *C 23.544 14.107
*N *2620:21 *C 23.530 14.120
*N *2620:22 *C 17.464 15.627
*N *2620:23 *C 17.464 14.134
*N *2620:24 *C 17.477 14.120
*N *2620:25 *C 22.176 14.120
*N *2620:26 *C 22.176 14.134
*N *2620:27 *C 22.176 14.424

*CAP
0 *409:Q 0.001
1 *391:A2 0.001
2 *390:A4 0.001
3 *355:A2 0.001
4 *505:A6 0.001
5 *106:A2 0.008094703
6 *2620:6 0.006500576
7 *2620:7 0.04316362
8 *2620:8 0.02810779
9 *2620:9 0.02925133
10 *2620:10 0.2463842
11 *2620:11 0.05637673
12 *2620:12 0.05752026
13 *2620:13 0.06920739
14 *2620:14 0.3173706
15 *2620:15 0.3349191
16 *2620:16 0.3220176
17 *2620:17 0.8231169
18 *2620:18 0.8009234
19 *2620:19 0.01031012
20 *2620:20 0.01145365
21 *2620:21 0.0577492
22 *2620:22 0.08441984
23 *2620:23 0.08556336
24 *2620:24 0.1860505
25 *2620:25 0.2455788
26 *2620:26 0.01654679
27 *2620:27 0.02328694

*RES
0 *409:Q *2620:27 1
1 *2620:20 *2620:19 0.2325
2 *2620:21 *2620:20 0.5
3 *2620:19 *390:A4 1
4 *2620:27 *2620:26 0.5187501
5 *2620:27 *2620:18 0.2714286
6 *2620:26 *2620:25 0.5
7 *2620:25 *2620:24 8.390179
8 *2620:25 *2620:21 2.41875
9 *2620:9 *2620:8 0.8107143
10 *2620:10 *2620:9 0.5
11 *2620:8 *505:A6 1
12 *2620:15 *2620:14 0.5
13 *2620:15 *2620:7 1.333036
14 *2620:14 *2620:13 2.690179
15 *2620:14 *2620:10 10.04107
16 *2620:6 *106:A2 0.09166668
17 *2620:7 *2620:6 1
18 *2620:12 *2620:11 1.580357
19 *2620:13 *2620:12 0.5
20 *2620:11 *355:A2 1
21 *2620:23 *2620:22 2.666071
22 *2620:24 *2620:23 0.5
23 *2620:22 *391:A2 1
24 *2620:16 *2620:15 7.6
25 *2620:17 *2620:16 1.357143
26 *2620:18 *2620:17 26.05714

*END

*D_NET *2625 2.737213 //LENGTH 31.205 LUMPCC 0 DR

*CONN
*I *402:Q O *L 0 *C 22.784 11.080
*I *381:A2 I *L 0.501039 *C 23.088 12.296
*I *380:A4 I *L 0.569168 *C 23.684 16.096
*I *65:A2 I *L 0.52073 *C 36.920 7.280
*I *344:A2 I *L 0.501039 *C 35.096 5.608
*I *508:A4 I *L 0.554348 *C 39.656 11.080
*N *2625:6 *C 22.784 10.898
*N *2625:7 *C 39.656 10.898
*N *2625:8 *C 39.656 11.068
*N *2625:9 *C 39.643 11.080
*N *2625:10 *C 35.096 5.622
*N *2625:11 *C 35.096 6.506
*N *2625:12 *C 35.110 6.520
*N *2625:13 *C 36.755 6.520
*N *2625:14 *C 36.768 6.534
*N *2625:15 *C 36.768 7.128
*N *2625:16 *C 36.920 7.128
*N *2625:17 *C 36.920 7.280
*N *2625:18 *C 36.920 11.067
*N *2625:19 *C 36.920 11.080
*N *2625:20 *C 23.556 16.096
*N *2625:21 *C 23.544 16.084
*N *2625:22 *C 23.544 15.944
*N *2625:23 *C 23.530 15.944
*N *2625:24 *C 23.102 15.944
*N *2625:25 *C 23.088 15.931
*N *2625:26 *C 23.088 12.296
*N *2625:27 *C 23.088 11.094
*N *2625:28 *C 23.088 11.080
*N *2625:29 *C 22.797 11.080
*N *2625:30 *C 22.784 11.068

*CAP
0 *402:Q 0.001
1 *381:A2 0.001
2 *380:A4 0.01203947
3 *65:A2 0.001
4 *344:A2 0.001
5 *508:A4 0.001
6 *2625:6 0.01156419
7 *2625:7 0.0143392
8 *2625:8 0.009637604
9 *2625:9 0.1059878
10 *2625:10 0.0452881
11 *2625:11 0.04643163
12 *2625:12 0.06757942
13 *2625:13 0.06757942
14 *2625:14 0.04145331
15 *2625:15 0.05066769
16 *2625:16 0.01856269
17 *2625:17 0.2171048
18 *2625:18 0.207121
19 *2625:19 0.6504448
20 *2625:20 0.01044535
21 *2625:21 0.01494915
22 *2625:22 0.01476424
23 *2625:23 0.02044973
24 *2625:24 0.02044973
25 *2625:25 0.2010962
26 *2625:26 0.2564212
27 *2625:27 0.05468953
28 *2625:28 0.5553702
29 *2625:29 0.01091321
30 *2625:30 0.006862587

*RES
0 *402:Q *2625:30 1
1 *2625:8 *508:A4 1
2 *2625:8 *2625:7 0.2825
3 *2625:9 *2625:8 0.5
4 *2625:18 *2625:17 6.761608
5 *2625:19 *2625:18 0.5
6 *2625:19 *2625:9 4.861607
7 *2625:17 *65:A2 1
8 *2625:17 *2625:16 0.2714286
9 *2625:14 *2625:13 0.5
10 *2625:13 *2625:12 2.9375
11 *2625:11 *2625:10 1.580357
12 *2625:12 *2625:11 0.5
13 *2625:10 *344:A2 1
14 *2625:25 *2625:24 0.5
15 *2625:24 *2625:23 0.7660714
16 *2625:22 *2625:21 0.2325
17 *2625:23 *2625:22 0.5
18 *2625:20 *380:A4 0.2116667
19 *2625:21 *2625:20 1
20 *2625:26 *381:A2 1
21 *2625:26 *2625:25 6.490179
22 *2625:27 *2625:26 2.147322
23 *2625:28 *2625:27 0.5
24 *2625:28 *2625:19 24.7
25 *2625:30 *2625:29 0.5
26 *2625:30 *2625:6 0.2825
27 *2625:29 *2625:28 0.5187501
28 *2625:15 *2625:14 1.061607
29 *2625:16 *2625:15 0.2714286

*END

*D_NET *2628 3.051626 //LENGTH 38.631 LUMPCC 0 DR

*CONN
*I *405:Q O *L 0 *C 22.176 11.080
*I *393:A2 I *L 0.501039 *C 17.464 11.080
*I *392:A4 I *L 0.569168 *C 17.616 12.752
*I *112:A2 I *L 0.52073 *C 42.392 9.408
*I *202:A2 I *L 0.538095 *C 45.888 13.968
*I *347:A2 I *L 0.501039 *C 25.064 8.952
*N *2628:6 *C 25.064 8.966
*N *2628:7 *C 45.888 13.967
*N *2628:8 *C 45.888 13.830
*N *2628:9 *C 45.876 13.816
*N *2628:10 *C 45.736 13.816
*N *2628:11 *C 45.736 13.803
*N *2628:12 *C 45.736 9.574
*N *2628:13 *C 45.723 9.560
*N *2628:14 *C 42.392 9.408
*N *2628:15 *C 42.392 9.548
*N *2628:16 *C 42.392 9.560
*N *2628:17 *C 25.078 9.560
*N *2628:18 *C 25.064 9.560
*N *2628:19 *C 25.064 10.459
*N *2628:20 *C 25.050 10.472
*N *2628:21 *C 17.616 12.739
*N *2628:22 *C 17.616 11.232
*N *2628:23 *C 17.464 11.232
*N *2628:24 *C 17.464 11.080
*N *2628:25 *C 17.464 10.486
*N *2628:26 *C 17.477 10.472
*N *2628:27 *C 22.176 10.472
*N *2628:28 *C 22.176 10.486
*N *2628:29 *C 22.176 11.067

*CAP
0 *405:Q 0.001
1 *393:A2 0.001
2 *392:A4 0.001
3 *112:A2 0.001
4 *202:A2 0.001
5 *347:A2 0.001
6 *2628:6 0.03462136
7 *2628:7 0.01389146
8 *2628:8 0.01503499
9 *2628:9 0.01018484
10 *2628:10 0.01018494
11 *2628:11 0.133222
12 *2628:12 0.133222
13 *2628:13 0.1266498
14 *2628:14 0.00947976
15 *2628:15 0.01062329
16 *2628:16 0.8397058
17 *2628:17 0.711277
18 *2628:18 0.07684141
19 *2628:19 0.03929748
20 *2628:20 0.1055723
21 *2628:21 0.07715837
22 *2628:22 0.08726284
23 *2628:23 0.01834309
24 *2628:24 0.0464978
25 *2628:25 0.03648015
26 *2628:26 0.1652426
27 *2628:27 0.272594
28 *2628:28 0.03669088
29 *2628:29 0.03554735

*RES
0 *405:Q *2628:29 1
1 *2628:13 *2628:12 0.5
2 *2628:12 *2628:11 7.551786
3 *2628:10 *2628:9 0.2325
4 *2628:11 *2628:10 0.5
5 *2628:8 *2628:7 0.2455357
6 *2628:9 *2628:8 0.5
7 *2628:7 *202:A2 1
8 *2628:15 *2628:14 0.2325
9 *2628:16 *2628:15 0.5
10 *2628:16 *2628:13 5.947322
11 *2628:14 *112:A2 1
12 *2628:18 *2628:17 0.5
13 *2628:18 *2628:6 1.061607
14 *2628:17 *2628:16 30.91875
15 *2628:6 *347:A2 1
16 *2628:19 *2628:18 1.604464
17 *2628:20 *2628:19 0.5
18 *2628:28 *2628:27 0.5
19 *2628:27 *2628:26 8.390179
20 *2628:27 *2628:20 5.133036
21 *2628:29 *2628:28 1.0375
22 *2628:21 *392:A4 1
23 *2628:24 *393:A2 1
24 *2628:24 *2628:23 0.2714286
25 *2628:25 *2628:24 1.061607
26 *2628:26 *2628:25 0.5
27 *2628:23 *2628:22 0.2714286
28 *2628:22 *2628:21 2.690179

*END

*D_NET *2632 2.016085 //LENGTH 23.493 LUMPCC 0 DR

*CONN
*I *240:Q O *L 0 *C 27.496 39.048
*I *324:A2 I *L 0.516516 *C 24.820 44.976
*I *95:A2 I *L 0.515513 *C 24.456 45.280
*I *94:A4 I *L 0.566007 *C 22.632 46.192
*I *109:A4 I *L 0.552216 *C 20.168 42.392
*I *322:A2 I *L 0.515513 *C 29.168 45.280
*I *316:A1 I *L 0.501685 *C 29.776 44.216
*N *2632:7 *C 27.314 39.656
*N *2632:8 *C 29.776 44.034
*N *2632:9 *C 29.776 44.204
*N *2632:10 *C 29.763 44.216
*N *2632:11 *C 29.168 45.267
*N *2632:12 *C 29.168 44.230
*N *2632:13 *C 29.168 44.216
*N *2632:14 *C 19.759 42.392
*N *2632:15 *C 19.744 42.406
*N *2632:16 *C 19.744 43.899
*N *2632:17 *C 19.758 43.912
*N *2632:18 *C 22.632 43.912
*N *2632:19 *C 22.632 46.178
*N *2632:20 *C 22.632 44.230
*N *2632:21 *C 22.632 44.216
*N *2632:22 *C 24.456 45.267
*N *2632:23 *C 24.456 44.976
*N *2632:24 *C 24.623 44.976
*N *2632:25 *C 24.608 44.963
*N *2632:26 *C 24.608 44.230
*N *2632:27 *C 24.608 44.216
*N *2632:28 *C 27.496 44.216
*N *2632:29 *C 27.496 44.203
*N *2632:30 *C 27.496 39.669
*N *2632:31 *C 27.484 39.656
*N *2632:32 *C 27.496 39.643
*N *2632:33 *C 27.496 39.062

*CAP
0 *240:Q 0.001
1 *324:A2 0.01801126
2 *95:A2 0.001
3 *94:A4 0.001
4 *109:A4 0.0285465
5 *322:A2 0.001
6 *316:A1 0.001
7 *2632:7 0.01024757
8 *2632:8 0.01724784
9 *2632:9 0.01254624
10 *2632:10 0.02647118
11 *2632:11 0.05454957
12 *2632:12 0.0556931
13 *2632:13 0.09827198
14 *2632:14 0.02695238
15 *2632:15 0.1031317
16 *2632:16 0.1029468
17 *2632:17 0.1162228
18 *2632:18 0.1281099
19 *2632:19 0.1002354
20 *2632:20 0.101379
21 *2632:21 0.09047313
22 *2632:22 0.01765697
23 *2632:23 0.0283019
24 *2632:24 0.01641713
25 *2632:25 0.04698536
26 *2632:26 0.03907808
27 *2632:27 0.2061275
28 *2632:28 0.1957843
29 *2632:29 0.1427724
30 *2632:30 0.1427724
31 *2632:31 0.006689603
32 *2632:32 0.03930337
33 *2632:33 0.03815983

*RES
0 *240:Q *2632:33 1
1 *2632:9 *316:A1 1
2 *2632:9 *2632:8 0.2825
3 *2632:10 *2632:9 0.5
4 *2632:12 *2632:11 1.851786
5 *2632:13 *2632:12 0.5
6 *2632:13 *2632:10 1.061607
7 *2632:11 *322:A2 1
8 *2632:28 *2632:27 5.157143
9 *2632:28 *2632:13 2.985714
10 *2632:29 *2632:28 0.5
11 *2632:31 *2632:30 0.5
12 *2632:31 *2632:7 0.2825
13 *2632:30 *2632:29 8.094644
14 *2632:32 *2632:31 0.5
15 *2632:33 *2632:32 1.0375
16 *2632:24 *324:A2 0.3940001
17 *2632:25 *2632:24 1
18 *2632:25 *2632:23 0.2714286
19 *2632:26 *2632:25 1.308929
20 *2632:27 *2632:26 0.5
21 *2632:27 *2632:21 3.528572
22 *2632:22 *95:A2 1
23 *2632:20 *2632:19 3.480357
24 *2632:21 *2632:20 0.5
25 *2632:21 *2632:18 0.5428572
26 *2632:19 *94:A4 1
27 *2632:16 *2632:15 2.666071
28 *2632:17 *2632:16 0.5
29 *2632:14 *109:A4 0.8180001
30 *2632:15 *2632:14 1
31 *2632:23 *2632:22 0.5187501
32 *2632:18 *2632:17 5.133036

*END

*D_NET *2635 2.71121 //LENGTH 27.116 LUMPCC 0 DR

*CONN
*I *237:Q O *L 0 *C 36.160 37.832
*I *283:A2 I *L 0.515513 *C 35.096 31.904
*I *278:A1 I *L 0.666174 *C 32.056 35.856
*I *102:A4 I *L 0.566007 *C 24.760 32.816
*I *51:A6 I *L 0.558565 *C 24.456 29.624
*I *103:A4 I *L 0.514778 *C 24.152 34.336
*I *277:A6 I *L 0.609639 *C 29.776 33.728
*N *2635:7 *C 29.776 33.729
*N *2635:8 *C 24.152 34.323
*N *2635:9 *C 24.456 29.638
*N *2635:10 *C 24.456 30.536
*N *2635:11 *C 24.152 30.536
*N *2635:12 *C 24.152 33.880
*N *2635:13 *C 24.166 33.880
*N *2635:14 *C 24.760 32.830
*N *2635:15 *C 24.760 33.867
*N *2635:16 *C 24.760 33.880
*N *2635:17 *C 29.763 33.880
*N *2635:18 *C 29.776 33.880
*N *2635:19 *C 29.776 35.691
*N *2635:20 *C 29.790 35.704
*N *2635:21 *C 32.056 35.843
*N *2635:22 *C 32.056 35.704
*N *2635:23 *C 32.056 35.704
*N *2635:24 *C 35.096 31.918
*N *2635:25 *C 35.096 35.691
*N *2635:26 *C 35.096 35.704
*N *2635:27 *C 36.147 35.704
*N *2635:28 *C 36.160 35.718
*N *2635:29 *C 36.160 37.819

*CAP
0 *237:Q 0.001
1 *283:A2 0.001
2 *278:A1 0.001
3 *102:A4 0.001
4 *51:A6 0.001
5 *103:A4 0.001
6 *277:A6 0.001
7 *2635:7 0.007389793
8 *2635:8 0.03310107
9 *2635:9 0.04344637
10 *2635:10 0.05961395
11 *2635:11 0.2437082
12 *2635:12 0.2647078
13 *2635:13 0.02531257
14 *2635:14 0.07078009
15 *2635:15 0.07192362
16 *2635:16 0.2309839
17 *2635:17 0.2038923
18 *2635:18 0.1095505
19 *2635:19 0.09923812
20 *2635:20 0.106316
21 *2635:21 0.01139645
22 *2635:22 0.01253998
23 *2635:23 0.2457221
24 *2635:24 0.1766646
25 *2635:25 0.1778082
26 *2635:26 0.1830889
27 *2635:27 0.04368284
28 *2635:28 0.1422432
29 *2635:29 0.1410997

*RES
0 *237:Q *2635:29 1
1 *2635:28 *2635:27 0.5
2 *2635:27 *2635:26 1.875893
3 *2635:29 *2635:28 3.751786
4 *2635:25 *2635:24 6.7375
5 *2635:26 *2635:25 0.5
6 *2635:26 *2635:23 5.428572
7 *2635:24 *283:A2 1
8 *2635:22 *2635:21 0.2325
9 *2635:23 *2635:22 0.5
10 *2635:23 *2635:20 4.047322
11 *2635:21 *278:A1 1
12 *2635:19 *2635:18 3.233036
13 *2635:20 *2635:19 0.5
14 *2635:7 *277:A6 1
15 *2635:18 *2635:17 0.5
16 *2635:18 *2635:7 0.2696429
17 *2635:17 *2635:16 8.933037
18 *2635:15 *2635:14 1.851786
19 *2635:16 *2635:15 0.5
20 *2635:16 *2635:13 1.061607
21 *2635:14 *102:A4 1
22 *2635:9 *51:A6 1
23 *2635:8 *103:A4 1
24 *2635:12 *2635:11 5.971429
25 *2635:12 *2635:8 0.7901786
26 *2635:13 *2635:12 0.5
27 *2635:11 *2635:10 0.5428572
28 *2635:10 *2635:9 1.604464

*END

*D_NET *2639 2.318669 //LENGTH 24.469 LUMPCC 0 DR

*CONN
*I *249:Q O *L 0 *C 35.096 24.456
*I *57:A6 I *L 0.558565 *C 33.424 22.936
*I *73:A2 I *L 0.504426 *C 33.424 21.112
*I *255:A3 I *L 0.455637 *C 39.352 18.984
*I *328:A5 I *L 0.583269 *C 40.112 24.152
*I *287:A2 I *L 0.509119 *C 41.632 24.456
*I *291:A1 I *L 0.526361 *C 42.544 22.632
*I *86:A3 I *L 0.539281 *C 33.576 18.984
*N *2639:8 *C 33.576 18.998
*N *2639:9 *C 42.544 22.646
*N *2639:10 *C 42.544 24.139
*N *2639:11 *C 42.531 24.152
*N *2639:12 *C 41.632 24.443
*N *2639:13 *C 41.632 24.166
*N *2639:14 *C 41.632 24.152
*N *2639:15 *C 40.112 24.020
*N *2639:16 *C 40.112 24.140
*N *2639:17 *C 40.112 24.152
*N *2639:18 *C 39.366 24.152
*N *2639:19 *C 39.352 24.139
*N *2639:20 *C 39.352 18.998
*N *2639:21 *C 39.352 19.288
*N *2639:22 *C 39.339 19.288
*N *2639:23 *C 33.590 19.288
*N *2639:24 *C 33.576 19.288
*N *2639:25 *C 33.576 21.112
*N *2639:26 *C 33.424 21.112
*N *2639:27 *C 33.424 22.936
*N *2639:28 *C 33.424 23.530
*N *2639:29 *C 33.438 23.544
*N *2639:30 *C 35.083 23.544
*N *2639:31 *C 35.096 23.558
*N *2639:32 *C 35.096 24.443

*CAP
0 *249:Q 0.001
1 *57:A6 0.001
2 *73:A2 0.001
3 *255:A3 0.001
4 *328:A5 0.001
5 *287:A2 0.001
6 *291:A1 0.001
7 *86:A3 0.001
8 *2639:8 0.01794619
9 *2639:9 0.09121484
10 *2639:10 0.09235837
11 *2639:11 0.04194504
12 *2639:12 0.01629351
13 *2639:13 0.01743704
14 *2639:14 0.134688
15 *2639:15 0.01231704
16 *2639:16 0.006132917
17 *2639:17 0.1427462
18 *2639:18 0.05148568
19 *2639:19 0.2439035
20 *2639:20 0.01392997
21 *2639:21 0.260756
22 *2639:22 0.2198694
23 *2639:23 0.2198694
24 *2639:24 0.130894
25 *2639:25 0.1197959
26 *2639:26 0.09191786
27 *2639:27 0.1136297
28 *2639:28 0.02792444
29 *2639:29 0.06796943
30 *2639:30 0.06796943
31 *2639:31 0.05440937
32 *2639:32 0.05326584

*RES
0 *249:Q *2639:32 1
1 *2639:10 *2639:9 2.666071
2 *2639:11 *2639:10 0.5
3 *2639:9 *291:A1 1
4 *2639:13 *2639:12 0.4946429
5 *2639:14 *2639:13 0.5
6 *2639:14 *2639:11 1.604465
7 *2639:12 *287:A2 1
8 *2639:16 *328:A5 1
9 *2639:16 *2639:15 0.1991667
10 *2639:17 *2639:16 0.5
11 *2639:17 *2639:14 2.714286
12 *2639:19 *2639:18 0.5
13 *2639:18 *2639:17 1.333036
14 *2639:20 *255:A3 1
15 *2639:21 *2639:20 0.5187501
16 *2639:21 *2639:19 8.661608
17 *2639:22 *2639:21 0.5
18 *2639:24 *2639:23 0.5
19 *2639:24 *2639:8 0.5187501
20 *2639:23 *2639:22 10.26607
21 *2639:8 *86:A3 1
22 *2639:28 *2639:27 1.061607
23 *2639:29 *2639:28 0.5
24 *2639:31 *2639:30 0.5
25 *2639:30 *2639:29 2.9375
26 *2639:32 *2639:31 1.580357
27 *2639:27 *57:A6 1
28 *2639:27 *2639:26 3.257143
29 *2639:26 *73:A2 1
30 *2639:26 *2639:25 0.2714286
31 *2639:25 *2639:24 3.257143

*END

*D_NET *2644 2.181263 //LENGTH 23.913 LUMPCC 0 DR

*CONN
*I *245:Q O *L 0 *C 38.136 14.424
*I *253:A1 I *L 0.666174 *C 43.608 14.272
*I *254:A1 I *L 0.601783 *C 43.760 15.820
*I *300:A2 I *L 0.516516 *C 45.432 11.840
*I *84:A2 I *L 0.504426 *C 45.432 7.736
*I *112:A4 I *L 0.552216 *C 42.544 8.952
*I *85:A2 I *L 0.515513 *C 45.781 8.496
*I *303:A1 I *L 0.545966 *C 46.952 9.256
*I *202:A4 I *L 0.554348 *C 45.766 14.424
*N *2644:9 *C 38.136 14.242
*N *2644:10 *C 46.192 14.242
*N *2644:11 *C 46.177 14.424
*N *2644:12 *C 46.192 14.412
*N *2644:13 *C 46.178 14.424
*N *2644:14 *C 46.952 9.242
*N *2644:15 *C 46.952 8.662
*N *2644:16 *C 46.939 8.648
*N *2644:17 *C 45.736 8.496
*N *2644:18 *C 45.736 8.496
*N *2644:19 *C 45.736 8.636
*N *2644:20 *C 45.736 8.648
*N *2644:21 *C 42.544 8.951
*N *2644:22 *C 42.544 8.662
*N *2644:23 *C 42.558 8.648
*N *2644:24 *C 45.432 7.750
*N *2644:25 *C 45.432 8.635
*N *2644:26 *C 45.432 8.649
*N *2644:27 *C 45.432 9.255
*N *2644:28 *C 45.432 9.270
*N *2644:29 *C 45.432 11.840
*N *2644:30 *C 45.432 14.411
*N *2644:31 *C 45.432 14.424
*N *2644:32 *C 43.620 15.792
*N *2644:33 *C 43.608 15.779
*N *2644:34 *C 43.608 14.273
*N *2644:35 *C 43.608 14.424
*N *2644:36 *C 43.608 14.424
*N *2644:37 *C 38.150 14.424
*N *2644:38 *C 38.136 14.412

*CAP
0 *245:Q 0.001
1 *253:A1 0.001
2 *254:A1 0.01267064
3 *300:A2 0.001
4 *84:A2 0.001
5 *112:A4 0.001
6 *85:A2 0.0103681
7 *303:A1 0.001
8 *202:A4 0.02820409
9 *2644:9 0.01592718
10 *2644:10 0.01992476
11 *2644:11 0.02660996
12 *2644:12 0.0165516
13 *2644:13 0.03067416
14 *2644:14 0.03090421
15 *2644:15 0.03204774
16 *2644:16 0.04270351
17 *2644:17 0.008773975
18 *2644:18 0.01628889
19 *2644:19 0.01610399
20 *2644:20 0.05447815
21 *2644:21 0.01622994
22 *2644:22 0.01737347
23 *2644:23 0.1157494
24 *2644:24 0.05923983
25 *2644:25 0.06038336
26 *2644:26 0.1478538
27 *2644:27 0.01855074
28 *2644:28 0.1237757
29 *2644:29 0.2658552
30 *2644:30 0.141444
31 *2644:31 0.1001537
32 *2644:32 0.01107651
33 *2644:33 0.09898814
34 *2644:34 0.006352709
35 *2644:35 0.1080785
36 *2644:36 0.2900906
37 *2644:37 0.220611
38 *2644:38 0.01122558

*RES
0 *245:Q *2644:38 1
1 *2644:15 *2644:14 1.0375
2 *2644:16 *2644:15 0.5
3 *2644:14 *303:A1 1
4 *2644:19 *2644:18 0.2325
5 *2644:20 *2644:19 0.5
6 *2644:20 *2644:16 2.147322
7 *2644:17 *85:A2 0.09166668
8 *2644:18 *2644:17 1
9 *2644:12 *2644:11 1
10 *2644:12 *2644:10 0.2825
11 *2644:13 *2644:12 0.5
12 *2644:11 *202:A4 0.8220001
13 *2644:30 *2644:29 4.590178
14 *2644:31 *2644:30 0.5
15 *2644:31 *2644:13 1.333036
16 *2644:29 *300:A2 1
17 *2644:29 *2644:28 4.590179
18 *2644:28 *2644:27 0.5
19 *2644:27 *2644:26 1.082143
20 *2644:25 *2644:24 1.580357
21 *2644:26 *2644:25 0.5
22 *2644:26 *2644:23 5.133036
23 *2644:26 *2644:20 0.5428572
24 *2644:24 *84:A2 1
25 *2644:32 *254:A1 0.2325
26 *2644:33 *2644:32 1
27 *2644:35 *2644:34 0.2696429
28 *2644:35 *2644:33 2.41875
29 *2644:36 *2644:35 0.5
30 *2644:36 *2644:31 3.257143
31 *2644:34 *253:A1 1
32 *2644:22 *2644:21 0.5169643
33 *2644:23 *2644:22 0.5
34 *2644:21 *112:A4 1
35 *2644:38 *2644:37 0.5
36 *2644:38 *2644:9 0.2825
37 *2644:37 *2644:36 9.747323

*END

*D_NET *2651 2.029465 //LENGTH 30.872 LUMPCC 0 DR

*CONN
*I *374:Q O *L 0 *C 21.264 5.608
*I *346:A4 I *L 0.569168 *C 23.392 9.408
*I *69:A4 I *L 0.529682 *C 41.328 7.736
*I *83:A I *L 0.582888 *C 44.368 7.432
*N *2651:4 *C 44.368 7.250
*N *2651:5 *C 44.368 7.420
*N *2651:6 *C 44.355 7.432
*N *2651:7 *C 41.328 7.723
*N *2651:8 *C 41.328 7.446
*N *2651:9 *C 41.342 7.432
*N *2651:10 *C 41.189 7.432
*N *2651:11 *C 41.176 7.419
*N *2651:12 *C 41.176 6.230
*N *2651:13 *C 41.163 6.216
*N *2651:14 *C 24.470 6.216
*N *2651:15 *C 24.456 6.230
*N *2651:16 *C 24.456 7.419
*N *2651:17 *C 24.443 7.432
*N *2651:18 *C 23.392 9.395
*N *2651:19 *C 23.392 7.446
*N *2651:20 *C 23.392 7.432
*N *2651:21 *C 21.277 7.432
*N *2651:22 *C 21.264 7.419
*N *2651:23 *C 21.264 5.622

*CAP
0 *374:Q 0.001
1 *346:A4 0.001
2 *69:A4 0.001
3 *83:A 0.001
4 *2651:4 0.01134355
5 *2651:5 0.006641947
6 *2651:6 0.1165142
7 *2651:7 0.01881389
8 *2651:8 0.01995743
9 *2651:9 0.1281284
10 *2651:10 0.009835209
11 *2651:11 0.04447409
12 *2651:12 0.04447424
13 *2651:13 0.4734209
14 *2651:14 0.4734209
15 *2651:15 0.0525316
16 *2651:16 0.05253145
17 *2651:17 0.0360034
18 *2651:18 0.0869134
19 *2651:19 0.08805693
20 *2651:20 0.1162159
21 *2651:21 0.07843358
22 *2651:22 0.08444916
23 *2651:23 0.08330564

*RES
0 *374:Q *2651:23 1
1 *2651:5 *83:A 1
2 *2651:5 *2651:4 0.2825
3 *2651:6 *2651:5 0.5
4 *2651:8 *2651:7 0.4946429
5 *2651:9 *2651:8 0.5
6 *2651:9 *2651:6 5.380358
7 *2651:7 *69:A4 1
8 *2651:10 *2651:9 0.255
9 *2651:11 *2651:10 0.5
10 *2651:12 *2651:11 2.123214
11 *2651:13 *2651:12 0.5
12 *2651:15 *2651:14 0.5
13 *2651:14 *2651:13 29.80893
14 *2651:17 *2651:16 0.5
15 *2651:16 *2651:15 2.123214
16 *2651:19 *2651:18 3.480358
17 *2651:20 *2651:19 0.5
18 *2651:20 *2651:17 1.875893
19 *2651:18 *346:A4 1
20 *2651:22 *2651:21 0.5
21 *2651:21 *2651:20 3.775893
22 *2651:23 *2651:22 3.208929

*END

*D_NET *2655 1.56534 //LENGTH 14.689 LUMPCC 0 DR

*CONN
*I *362:Q O *L 0 *C 22.784 37.832
*I *350:A4 I *L 0.569168 *C 20.200 36.160
*I *63:A4 I *L 0.529682 *C 20.061 45.736
*I *93:A I *L 0.582888 *C 21.416 46.040
*N *2655:4 *C 22.784 37.650
*N *2655:5 *C 21.416 45.858
*N *2655:6 *C 21.416 46.028
*N *2655:7 *C 21.402 46.040
*N *2655:8 *C 20.213 46.040
*N *2655:9 *C 20.200 46.027
*N *2655:10 *C 20.188 45.736
*N *2655:11 *C 20.200 45.736
*N *2655:12 *C 20.200 36.174
*N *2655:13 *C 20.200 37.832
*N *2655:14 *C 20.213 37.832
*N *2655:15 *C 22.771 37.832
*N *2655:16 *C 22.784 37.820

*CAP
0 *362:Q 0.001
1 *350:A4 0.001
2 *63:A4 0.01229521
3 *93:A 0.001
4 *2655:4 0.01551102
5 *2655:5 0.01201961
6 *2655:6 0.007318006
7 *2655:7 0.05442815
8 *2655:8 0.05442815
9 *2655:9 0.01824259
10 *2655:10 0.01070108
11 *2655:11 0.4779868
12 *2655:12 0.109763
13 *2655:13 0.5704658
14 *2655:14 0.1041854
15 *2655:15 0.1041854
16 *2655:16 0.01080942

*RES
0 *362:Q *2655:16 1
1 *2655:9 *2655:8 0.5
2 *2655:8 *2655:7 2.123214
3 *2655:6 *93:A 1
4 *2655:6 *2655:5 0.2825
5 *2655:7 *2655:6 0.5
6 *2655:13 *2655:12 2.961607
7 *2655:13 *2655:11 14.11429
8 *2655:14 *2655:13 0.5
9 *2655:16 *2655:15 0.5
10 *2655:16 *2655:4 0.2825
11 *2655:15 *2655:14 4.566072
12 *2655:12 *350:A4 1
13 *2655:10 *63:A4 0.2116667
14 *2655:11 *2655:10 1
15 *2655:11 *2655:9 0.5187501

*END

*D_NET *2659 0.7709196 //LENGTH 7.947 LUMPCC 0 DR

*CONN
*I *370:Q O *L 0 *C 25.824 25.672
*I *354:A4 I *L 0.569168 *C 24.456 27.344
*I *51:A4 I *L 0.529682 *C 25.064 29.016
*I *101:A I *L 0.582888 *C 26.128 29.320
*N *2659:4 *C 26.128 29.306
*N *2659:5 *C 26.128 28.712
*N *2659:6 *C 25.064 29.003
*N *2659:7 *C 24.456 27.358
*N *2659:8 *C 24.456 28.395
*N *2659:9 *C 24.470 28.408
*N *2659:10 *C 25.050 28.408
*N *2659:11 *C 25.064 28.422
*N *2659:12 *C 25.064 28.712
*N *2659:13 *C 25.078 28.712
*N *2659:14 *C 25.963 28.712
*N *2659:15 *C 25.976 28.712
*N *2659:16 *C 25.976 26.584
*N *2659:17 *C 25.824 26.584
*N *2659:18 *C 25.824 25.686

*CAP
0 *370:Q 0.001
1 *354:A4 0.001
2 *51:A4 0.001
3 *101:A 0.001
4 *2659:4 0.04547482
5 *2659:5 0.05516477
6 *2659:6 0.01914864
7 *2659:7 0.06740951
8 *2659:8 0.06855303
9 *2659:9 0.02746054
10 *2659:10 0.02746054
11 *2659:11 0.01831023
12 *2659:12 0.04038144
13 *2659:13 0.04061401
14 *2659:14 0.04061401
15 *2659:15 0.1041039
16 *2659:16 0.106689
17 *2659:17 0.05801553
18 *2659:18 0.0475195

*RES
0 *370:Q *2659:18 1
1 *2659:4 *101:A 1
2 *2659:18 *2659:17 1.604464
3 *2659:6 *51:A4 1
4 *2659:15 *2659:14 0.5
5 *2659:15 *2659:5 0.2714286
6 *2659:14 *2659:13 1.580357
7 *2659:12 *2659:11 0.5187501
8 *2659:12 *2659:6 0.5187501
9 *2659:13 *2659:12 0.5
10 *2659:11 *2659:10 0.5
11 *2659:10 *2659:9 1.0375
12 *2659:8 *2659:7 1.851786
13 *2659:9 *2659:8 0.5
14 *2659:7 *354:A4 1
15 *2659:17 *2659:16 0.2714286
16 *2659:16 *2659:15 3.8
17 *2659:5 *2659:4 1.061607

*END

*D_NET *2663 0.2641734 //LENGTH 3.522 LUMPCC 0 DR

*CONN
*I *212:Y O *L 0 *C 9.256 9.408
*I *136:D I *L 0.543562 *C 11.232 10.624
*N *2663:2 *C 11.232 10.611
*N *2663:3 *C 11.232 9.878
*N *2663:4 *C 11.219 9.864
*N *2663:5 *C 9.270 9.864
*N *2663:6 *C 9.256 9.851
*N *2663:7 *C 9.256 9.421

*CAP
0 *212:Y 0.001
1 *136:D 0.001
2 *2663:2 0.0297099
3 *2663:3 0.03085343
4 *2663:4 0.07609729
5 *2663:5 0.07609729
6 *2663:6 0.02527948
7 *2663:7 0.02413595

*RES
0 *212:Y *2663:7 1
1 *2663:2 *136:D 1
2 *2663:3 *2663:2 1.308929
3 *2663:4 *2663:3 0.5
4 *2663:6 *2663:5 0.5
5 *2663:5 *2663:4 3.480357
6 *2663:7 *2663:6 0.7660715

*END

*D_NET *2666 0.6263339 //LENGTH 9.607 LUMPCC 0 DR

*CONN
*I *205:Y O *L 0 *C 5.608 10.472
*I *234:D I *L 0.543569 *C 11.384 13.968
*N *2666:2 *C 11.384 13.956
*N *2666:3 *C 11.384 13.816
*N *2666:4 *C 11.370 13.816
*N *2666:5 *C 5.622 13.816
*N *2666:6 *C 5.608 13.803
*N *2666:7 *C 5.608 10.486

*CAP
0 *205:Y 0.001
1 *234:D 0.001
2 *2666:2 0.006111059
3 *2666:3 0.007254591
4 *2666:4 0.1750712
5 *2666:5 0.1750712
6 *2666:6 0.1309847
7 *2666:7 0.1298411

*RES
0 *205:Y *2666:7 1
1 *2666:2 *234:D 1
2 *2666:3 *2666:2 0.2325
3 *2666:4 *2666:3 0.5
4 *2666:6 *2666:5 0.5
5 *2666:5 *2666:4 10.26607
6 *2666:7 *2666:6 5.923214

*END

*D_NET *2668 0.437724 //LENGTH 6.699 LUMPCC 0 DR

*CONN
*I *310:Y O *L 0 *C 5.760 19.592
*I *228:D I *L 0.543569 *C 11.840 19.440
*N *2668:2 *C 5.760 19.410
*N *2668:3 *C 11.840 19.440
*N *2668:4 *C 11.840 19.579
*N *2668:5 *C 11.827 19.592
*N *2668:6 *C 5.774 19.592
*N *2668:7 *C 5.760 19.579

*CAP
0 *310:Y 0.001
1 *228:D 0.001
2 *2668:2 0.01453602
3 *2668:3 0.01276997
4 *2668:4 0.0139135
5 *2668:5 0.192335
6 *2668:6 0.192335
7 *2668:7 0.009834415

*RES
0 *310:Y *2668:7 1
1 *2668:3 *228:D 1
2 *2668:4 *2668:3 0.2325
3 *2668:5 *2668:4 0.5
4 *2668:7 *2668:6 0.5
5 *2668:7 *2668:2 0.2825
6 *2668:6 *2668:5 10.80893

*END

*D_NET *2671 0.09953266 //LENGTH 0.743 LUMPCC 0 DR

*CONN
*I *87:Y O *L 0 *C 8.483 27.344
*I *233:D I *L 0.543569 *C 9.226 27.344

*CAP
0 *87:Y 0.04976633
1 *233:D 0.04976633

*RES
0 *87:Y *233:D 1.486

*END

*D_NET *2675 0.741645 //LENGTH 8.234 LUMPCC 0 DR

*CONN
*I *166:Y O *L 0 *C 7.584 36.312
*I *235:D I *L 0.543569 *C 5.304 30.688
*N *2675:2 *C 5.304 30.702
*N *2675:3 *C 5.304 31.739
*N *2675:4 *C 5.317 31.752
*N *2675:5 *C 7.571 31.752
*N *2675:6 *C 7.584 31.766
*N *2675:7 *C 7.584 36.299

*CAP
0 *166:Y 0.001
1 *235:D 0.001
2 *2675:2 0.0444274
3 *2675:3 0.04557093
4 *2675:4 0.08788461
5 *2675:5 0.08788461
6 *2675:6 0.2375105
7 *2675:7 0.236367

*RES
0 *166:Y *2675:7 1
1 *2675:2 *235:D 1
2 *2675:3 *2675:2 1.851786
3 *2675:4 *2675:3 0.5
4 *2675:6 *2675:5 0.5
5 *2675:5 *2675:4 4.023215
6 *2675:7 *2675:6 8.094644

*END

*D_NET *2679 12.12582 //LENGTH 146.801 LUMPCC 0 DR

*CONN
*I *138:Y O *L 0 *C 12.296 16.096
*I *233:RSTB I *L 1.062234 *C 10.776 26.888
*I *223:RSTB I *L 1.062234 *C 10.776 29.928
*I *222:RSTB I *L 1.062234 *C 11.384 30.232
*I *235:RSTB I *L 1.062234 *C 6.824 30.232
*I *229:RSTB I *L 1.062234 *C 6.976 33.576
*I *137:RSTB I *L 0.906543 *C 11.384 36.920
*I *224:RSTB I *L 1.062234 *C 11.384 36.616
*I *230:RSTB I *L 1.062234 *C 10.776 39.960
*I *394:RSTB I *L 1.062234 *C 15.944 26.584
*I *369:RSTB I *L 1.062234 *C 16.248 26.888
*I *368:RSTB I *L 1.062234 *C 15.944 30.232
*I *363:RSTB I *L 1.062234 *C 17.008 36.616
*I *361:RSTB I *L 1.062234 *C 15.792 36.920
*I *360:RSTB I *L 1.062234 *C 15.944 39.982
*I *362:RSTB I *L 1.062234 *C 20.352 36.920
*I *340:RSTB I *L 1.062234 *C 24.944 36.928
*I *240:RSTB I *L 0.906543 *C 25.368 39.960
*I *339:RSTB I *L 1.062234 *C 29.472 36.920
*I *238:RSTB I *L 0.906543 *C 28.712 30.232
*I *239:RSTB I *L 0.906543 *C 28.712 29.928
*I *370:RSTB I *L 1.062234 *C 27.952 26.606
*I *366:RSTB I *L 1.062234 *C 27.952 23.544
*I *237:RSTB I *L 0.906543 *C 34.032 36.920
*I *418:RSTB I *L 0.906543 *C 37.984 33.576
*I *414:RSTB I *L 0.906543 *C 37.680 33.272
*I *410:RSTB I *L 0.906543 *C 37.224 26.888
*I *249:RSTB I *L 0.906543 *C 37.224 23.544
*I *415:RSTB I *L 0.906543 *C 37.224 29.928
*I *497:RSTB I *L 1.062234 *C 35.096 43.608
*I *412:RSTB I *L 0.906543 *C 38.440 43.304
*I *411:RSTB I *L 0.906543 *C 39.504 40.264
*I *416:RSTB I *L 0.906543 *C 39.504 39.960
*I *413:RSTB I *L 0.906543 *C 38.592 46.648
*I *417:RSTB I *L 0.906543 *C 38.288 36.616
*I *498:RSTB I *L 1.062234 *C 34.944 39.982
*I *241:RSTB I *L 0.906543 *C 30.688 39.960
*I *242:RSTB I *L 0.906543 *C 21.264 40.264
*I *371:RSTB I *L 1.062234 *C 17.160 33.272
*N *2679:39 *C 17.159 33.272
*N *2679:40 *C 21.264 40.082
*N *2679:41 *C 21.264 40.252
*N *2679:42 *C 21.251 40.264
*N *2679:43 *C 20.366 40.264
*N *2679:44 *C 20.352 40.251
*N *2679:45 *C 30.688 39.947
*N *2679:46 *C 34.944 39.960
*N *2679:47 *C 34.944 39.947
*N *2679:48 *C 34.944 38.758
*N *2679:49 *C 34.931 38.744
*N *2679:50 *C 38.287 36.616
*N *2679:51 *C 38.592 46.635
*N *2679:52 *C 39.504 39.974
*N *2679:53 *C 39.504 40.251
*N *2679:54 *C 39.491 40.264
*N *2679:55 *C 38.605 40.264
*N *2679:56 *C 38.592 40.278
*N *2679:57 *C 38.592 43.304
*N *2679:58 *C 38.441 43.304
*N *2679:59 *C 38.427 43.304
*N *2679:60 *C 35.096 43.426
*N *2679:61 *C 35.096 43.596
*N *2679:62 *C 35.110 43.608
*N *2679:63 *C 37.984 43.608
*N *2679:64 *C 37.984 43.304
*N *2679:65 *C 37.984 43.291
*N *2679:66 *C 37.224 29.915
*N *2679:67 *C 37.224 23.558
*N *2679:68 *C 37.224 26.888
*N *2679:69 *C 37.224 29.624
*N *2679:70 *C 37.238 29.624
*N *2679:71 *C 37.666 29.624
*N *2679:72 *C 37.680 29.638
*N *2679:73 *C 37.680 33.259
*N *2679:74 *C 37.694 33.272
*N *2679:75 *C 37.832 33.272
*N *2679:76 *C 37.832 33.576
*N *2679:77 *C 37.971 33.576
*N *2679:78 *C 37.984 33.590
*N *2679:79 *C 37.984 36.616
*N *2679:80 *C 38.136 36.616
*N *2679:81 *C 38.123 36.616
*N *2679:82 *C 33.880 36.616
*N *2679:83 *C 33.880 36.920
*N *2679:84 *C 34.019 36.920
*N *2679:85 *C 34.032 36.934
*N *2679:86 *C 34.032 38.730
*N *2679:87 *C 34.032 38.744
*N *2679:88 *C 30.702 38.744
*N *2679:89 *C 30.688 38.744
*N *2679:90 *C 30.688 37.238
*N *2679:91 *C 30.675 37.224
*N *2679:92 *C 27.952 23.558
*N *2679:93 *C 27.952 26.584
*N *2679:94 *C 27.952 26.584
*N *2679:95 *C 27.952 29.928
*N *2679:96 *C 28.712 29.942
*N *2679:97 *C 28.712 30.232
*N *2679:98 *C 29.472 36.738
*N *2679:99 *C 29.472 36.907
*N *2679:100 *C 29.459 36.920
*N *2679:101 *C 28.726 36.920
*N *2679:102 *C 28.712 36.920
*N *2679:103 *C 28.712 37.211
*N *2679:104 *C 28.712 37.224
*N *2679:105 *C 25.368 39.947
*N *2679:106 *C 25.368 37.238
*N *2679:107 *C 25.368 37.224
*N *2679:108 *C 25.060 36.920
*N *2679:109 *C 25.064 36.934
*N *2679:110 *C 25.064 37.211
*N *2679:111 *C 25.064 37.224
*N *2679:112 *C 24.912 37.224
*N *2679:113 *C 24.912 37.528
*N *2679:114 *C 20.366 37.528
*N *2679:115 *C 20.352 37.528
*N *2679:116 *C 20.352 36.934
*N *2679:117 *C 20.338 36.920
*N *2679:118 *C 17.616 36.920
*N *2679:119 *C 17.616 36.616
*N *2679:120 *C 15.944 39.960
*N *2679:121 *C 15.944 39.947
*N *2679:122 *C 15.793 36.920
*N *2679:123 *C 15.944 36.934
*N *2679:124 *C 15.944 36.919
*N *2679:125 *C 15.944 36.616
*N *2679:126 *C 17.008 36.616
*N *2679:127 *C 17.008 36.602
*N *2679:128 *C 17.008 33.272
*N *2679:129 *C 17.008 31.766
*N *2679:130 *C 16.995 31.752
*N *2679:131 *C 15.958 31.752
*N *2679:132 *C 15.944 31.739
*N *2679:133 *C 15.944 30.232
*N *2679:134 *C 16.248 26.902
*N *2679:135 *C 16.248 27.192
*N *2679:136 *C 15.944 26.598
*N *2679:137 *C 15.944 27.192
*N *2679:138 *C 15.944 27.496
*N *2679:139 *C 15.931 27.496
*N *2679:140 *C 10.777 39.960
*N *2679:141 *C 10.928 39.960
*N *2679:142 *C 11.384 36.630
*N *2679:143 *C 11.384 36.907
*N *2679:144 *C 11.370 36.920
*N *2679:145 *C 10.942 36.920
*N *2679:146 *C 10.928 36.920
*N *2679:147 *C 6.976 33.562
*N *2679:148 *C 6.824 30.245
*N *2679:149 *C 6.824 31.144
*N *2679:150 *C 6.976 31.158
*N *2679:151 *C 6.990 31.144
*N *2679:152 *C 10.915 31.144
*N *2679:153 *C 10.928 31.144
*N *2679:154 *C 11.384 30.050
*N *2679:155 *C 11.384 30.220
*N *2679:156 *C 11.370 30.232
*N *2679:157 *C 10.942 30.232
*N *2679:158 *C 10.928 30.232
*N *2679:159 *C 10.776 29.915
*N *2679:160 *C 10.776 29.320
*N *2679:161 *C 10.928 29.320
*N *2679:162 *C 10.776 26.902
*N *2679:163 *C 10.776 27.496
*N *2679:164 *C 10.928 27.510
*N *2679:165 *C 10.942 27.496
*N *2679:166 *C 12.296 27.496
*N *2679:167 *C 12.295 27.496
*N *2679:168 *C 12.144 27.496
*N *2679:169 *C 12.144 16.248
*N *2679:170 *C 12.296 16.248
*N *2679:171 *C 12.296 16.110

*CAP
0 *138:Y 0.001
1 *233:RSTB 0.001
2 *223:RSTB 0.001
3 *222:RSTB 0.001
4 *235:RSTB 0.001
5 *229:RSTB 0.001
6 *137:RSTB 0.001
7 *224:RSTB 0.001
8 *230:RSTB 0.001
9 *394:RSTB 0.001
10 *369:RSTB 0.001
11 *368:RSTB 0.001
12 *363:RSTB 0.001
13 *361:RSTB 0.001
14 *360:RSTB 0.005200848
15 *362:RSTB 0.001
16 *340:RSTB 0.005231153
17 *240:RSTB 0.001
18 *339:RSTB 0.001
19 *238:RSTB 0.001
20 *239:RSTB 0.001
21 *370:RSTB 0.00486125
22 *366:RSTB 0.001
23 *237:RSTB 0.001
24 *418:RSTB 0.001
25 *414:RSTB 0.001
26 *410:RSTB 0.001
27 *249:RSTB 0.001
28 *415:RSTB 0.001
29 *497:RSTB 0.001
30 *412:RSTB 0.001
31 *411:RSTB 0.001
32 *416:RSTB 0.001
33 *413:RSTB 0.001
34 *417:RSTB 0.001
35 *498:RSTB 0.005110821
36 *241:RSTB 0.001
37 *242:RSTB 0.001
38 *371:RSTB 0.001
39 *2679:39 0.004533939
40 *2679:40 0.01313496
41 *2679:41 0.008433364
42 *2679:42 0.03871152
43 *2679:43 0.03871152
44 *2679:44 0.1609349
45 *2679:45 0.04978179
46 *2679:46 0.003516694
47 *2679:47 0.04799454
48 *2679:48 0.04780963
49 *2679:49 0.0456751
50 *2679:50 0.003539677
51 *2679:51 0.1298795
52 *2679:52 0.01272179
53 *2679:53 0.01094276
54 *2679:54 0.03403975
55 *2679:55 0.03403975
56 *2679:56 0.1223588
57 *2679:57 0.2638797
58 *2679:58 0.002238191
59 *2679:59 0.02243368
60 *2679:60 0.01024009
61 *2679:61 0.005538487
62 *2679:62 0.113794
63 *2679:63 0.1257719
64 *2679:64 0.03263262
65 *2679:65 0.2384014
66 *2679:66 0.01048847
67 *2679:67 0.1214007
68 *2679:68 0.2225209
69 *2679:69 0.1127522
70 *2679:70 0.02284064
71 *2679:71 0.02284064
72 *2679:72 0.1291034
73 *2679:73 0.1261809
74 *2679:74 0.008456269
75 *2679:75 0.02024077
76 *2679:76 0.01965169
77 *2679:77 0.007867192
78 *2679:78 0.1080263
79 *2679:79 0.3592995
80 *2679:80 0.01107444
81 *2679:81 0.1548561
82 *2679:82 0.1670838
83 *2679:83 0.01996372
84 *2679:84 0.007736036
85 *2679:85 0.1083376
86 *2679:86 0.1112601
87 *2679:87 0.2060502
88 *2679:88 0.1585961
89 *2679:89 0.1095129
90 *2679:90 0.05680851
91 *2679:91 0.06846973
92 *2679:92 0.1087642
93 *2679:93 0.003267123
94 *2679:94 0.2291108
95 *2679:95 0.1478929
96 *2679:96 0.03894995
97 *2679:97 0.2790983
98 *2679:98 0.01105749
99 *2679:99 0.006355891
100 *2679:100 0.03293891
101 *2679:101 0.03293891
102 *2679:102 0.2800677
103 *2679:103 0.01104457
104 *2679:104 0.1806034
105 *2679:105 0.1890155
106 *2679:106 0.1901591
107 *2679:107 0.1215362
108 *2679:108 0.003637026
109 *2679:109 0.02061822
110 *2679:110 0.02043331
111 *2679:111 0.01602323
112 *2679:112 0.01773144
113 *2679:113 0.192771
114 *2679:114 0.1798812
115 *2679:115 0.1998247
116 *2679:116 0.03418819
117 *2679:117 0.1135897
118 *2679:118 0.126626
119 *2679:119 0.03211144
120 *2679:120 0.003606722
121 *2679:121 0.1112623
122 *2679:122 0.004226219
123 *2679:123 0.1182262
124 *2679:124 0.009089194
125 *2679:125 0.04610365
126 *2679:126 0.05431055
127 *2679:127 0.1165463
128 *2679:128 0.1885082
129 *2679:129 0.05802479
130 *2679:130 0.04420749
131 *2679:131 0.04420749
132 *2679:132 0.05789259
133 *2679:133 0.1582312
134 *2679:134 0.01450852
135 *2679:135 0.03037537
136 *2679:136 0.02445051
137 *2679:137 0.05190548
138 *2679:138 0.1112912
139 *2679:139 0.1452737
140 *2679:140 0.004390567
141 *2679:141 0.1298596
142 *2679:142 0.01323928
143 *2679:143 0.01146024
144 *2679:144 0.020545
145 *2679:145 0.020545
146 *2679:146 0.3436366
147 *2679:147 0.1054984
148 *2679:148 0.04448709
149 *2679:149 0.05494759
150 *2679:150 0.1141799
151 *2679:151 0.1525815
152 *2679:152 0.1525815
153 *2679:153 0.2568442
154 *2679:154 0.01140076
155 *2679:155 0.006699156
156 *2679:156 0.0229922
157 *2679:157 0.0229922
158 *2679:158 0.07547055
159 *2679:159 0.03745889
160 *2679:160 0.04761839
161 *2679:161 0.1237605
162 *2679:162 0.02719449
163 *2679:163 0.03730473
164 *2679:164 0.08043668
165 *2679:165 0.05288155
166 *2679:166 0.1999343
167 *2679:167 0.006130113
168 *2679:168 0.779981
169 *2679:169 0.7788538
170 *2679:170 0.01930927
171 *2679:171 0.009604709

*RES
0 *138:Y *2679:171 1
1 *2679:53 *411:RSTB 1
2 *2679:53 *2679:52 0.4946429
3 *2679:52 *416:RSTB 1
4 *2679:51 *413:RSTB 1
5 *2679:54 *2679:53 0.5
6 *2679:56 *2679:55 0.5
7 *2679:55 *2679:54 1.580357
8 *2679:58 *412:RSTB 1
9 *2679:58 *2679:57 0.2696429
10 *2679:50 *417:RSTB 1
11 *2679:59 *2679:58 0.5
12 *2679:65 *2679:64 0.5
13 *2679:64 *2679:63 0.5428572
14 *2679:64 *2679:59 0.7901787
15 *2679:78 *418:RSTB 1
16 *2679:78 *2679:77 0.5
17 *2679:77 *2679:76 0.2473214
18 *2679:73 *414:RSTB 1
19 *2679:73 *2679:72 6.466072
20 *2679:74 *2679:73 0.5
21 *2679:66 *415:RSTB 1
22 *2679:72 *2679:71 0.5
23 *2679:71 *2679:70 0.7660714
24 *2679:69 *2679:68 4.885715
25 *2679:69 *2679:66 0.5187501
26 *2679:70 *2679:69 0.5
27 *2679:68 *410:RSTB 1
28 *2679:68 *2679:67 5.947322
29 *2679:67 *249:RSTB 1
30 *2679:61 *497:RSTB 1
31 *2679:61 *2679:60 0.2825
32 *2679:62 *2679:61 0.5
33 *2679:48 *2679:47 2.123214
34 *2679:49 *2679:48 0.5
35 *2679:46 *498:RSTB 0.02727273
36 *2679:47 *2679:46 1
37 *2679:86 *2679:85 3.208929
38 *2679:87 *2679:86 0.5
39 *2679:87 *2679:49 1.604464
40 *2679:85 *237:RSTB 1
41 *2679:85 *2679:84 0.5
42 *2679:80 *2679:79 0.2714286
43 *2679:80 *2679:50 0.2696429
44 *2679:81 *2679:80 0.5
45 *2679:84 *2679:83 0.2473215
46 *2679:45 *241:RSTB 1
47 *2679:89 *2679:88 0.5
48 *2679:89 *2679:45 2.147322
49 *2679:88 *2679:87 5.947322
50 *2679:90 *2679:89 2.690179
51 *2679:91 *2679:90 0.5
52 *2679:103 *2679:102 0.5187501
53 *2679:104 *2679:103 0.5
54 *2679:104 *2679:91 3.504464
55 *2679:102 *2679:101 0.5
56 *2679:102 *2679:97 11.94286
57 *2679:101 *2679:100 1.308929
58 *2679:99 *339:RSTB 1
59 *2679:99 *2679:98 0.2825
60 *2679:100 *2679:99 0.5
61 *2679:97 *238:RSTB 1
62 *2679:97 *2679:96 0.5187501
63 *2679:96 *239:RSTB 1
64 *2679:96 *2679:95 1.357143
65 *2679:93 *370:RSTB 0.02727273
66 *2679:94 *2679:93 1
67 *2679:94 *2679:92 5.404464
68 *2679:92 *366:RSTB 1
69 *2679:106 *2679:105 4.837501
70 *2679:107 *2679:106 0.5
71 *2679:107 *2679:104 5.971429
72 *2679:105 *240:RSTB 1
73 *2679:110 *2679:109 0.4946429
74 *2679:111 *2679:110 0.5
75 *2679:111 *2679:107 0.5428572
76 *2679:108 *340:RSTB 0.02727273
77 *2679:109 *2679:108 1
78 *2679:44 *2679:43 0.5
79 *2679:43 *2679:42 1.580357
80 *2679:41 *242:RSTB 1
81 *2679:41 *2679:40 0.2825
82 *2679:42 *2679:41 0.5
83 *2679:115 *2679:114 0.5
84 *2679:115 *2679:44 4.861607
85 *2679:114 *2679:113 8.118751
86 *2679:116 *362:RSTB 1
87 *2679:116 *2679:115 1.061607
88 *2679:117 *2679:116 0.5
89 *2679:39 *371:RSTB 1
90 *2679:127 *363:RSTB 1
91 *2679:127 *2679:126 0.5
92 *2679:126 *2679:125 1.9
93 *2679:126 *2679:119 1.085714
94 *2679:134 *369:RSTB 1
95 *2679:120 *360:RSTB 0.02727273
96 *2679:121 *2679:120 1
97 *2679:123 *2679:122 0.2696429
98 *2679:123 *2679:121 5.380358
99 *2679:124 *2679:123 0.5
100 *2679:129 *2679:128 2.690179
101 *2679:130 *2679:129 0.5
102 *2679:132 *2679:131 0.5
103 *2679:131 *2679:130 1.851786
104 *2679:133 *368:RSTB 1
105 *2679:133 *2679:132 2.690179
106 *2679:136 *394:RSTB 1
107 *2679:122 *361:RSTB 1
108 *2679:138 *2679:137 0.5428572
109 *2679:138 *2679:133 4.885715
110 *2679:139 *2679:138 0.5
111 *2679:167 *2679:166 0.5
112 *2679:166 *2679:165 2.41875
113 *2679:166 *2679:139 6.490179
114 *2679:171 *2679:170 0.2473214
115 *2679:143 *137:RSTB 1
116 *2679:143 *2679:142 0.4946429
117 *2679:142 *224:RSTB 1
118 *2679:144 *2679:143 0.5
119 *2679:146 *2679:145 0.5
120 *2679:146 *2679:141 5.428572
121 *2679:145 *2679:144 0.7660715
122 *2679:158 *2679:157 0.5
123 *2679:158 *2679:153 1.628571
124 *2679:157 *2679:156 0.7660715
125 *2679:155 *222:RSTB 1
126 *2679:155 *2679:154 0.2825
127 *2679:156 *2679:155 0.5
128 *2679:164 *2679:163 0.2714286
129 *2679:164 *2679:161 3.233036
130 *2679:165 *2679:164 0.5
131 *2679:140 *230:RSTB 1
132 *2679:159 *223:RSTB 1
133 *2679:162 *233:RSTB 1
134 *2679:147 *229:RSTB 1
135 *2679:153 *2679:152 0.5
136 *2679:153 *2679:146 10.31429
137 *2679:152 *2679:151 7.008929
138 *2679:150 *2679:149 0.2714286
139 *2679:150 *2679:147 4.294643
140 *2679:151 *2679:150 0.5
141 *2679:148 *235:RSTB 1
142 *2679:149 *2679:148 1.604465
143 *2679:163 *2679:162 1.061607
144 *2679:160 *2679:159 1.061607
145 *2679:161 *2679:160 0.2714286
146 *2679:161 *2679:158 1.628572
147 *2679:141 *2679:140 0.2696429
148 *2679:169 *2679:168 20.08572
149 *2679:168 *2679:167 0.2696429
150 *2679:170 *2679:169 0.2714286
151 *2679:137 *2679:136 1.061607
152 *2679:137 *2679:135 0.5428572
153 *2679:135 *2679:134 0.51875
154 *2679:128 *2679:127 5.947322
155 *2679:128 *2679:39 0.2696429
156 *2679:95 *2679:94 5.971429
157 *2679:79 *2679:78 5.404465
158 *2679:79 *2679:65 11.91875
159 *2679:57 *2679:56 5.404464
160 *2679:57 *2679:51 5.947322
161 *2679:125 *2679:124 0.5410715
162 *2679:119 *2679:118 0.5428572
163 *2679:118 *2679:117 4.861607
164 *2679:113 *2679:112 0.5428572
165 *2679:112 *2679:111 0.2714286
166 *2679:82 *2679:81 7.575893
167 *2679:83 *2679:82 0.5428572
168 *2679:63 *2679:62 5.133036
169 *2679:75 *2679:74 0.2473214
170 *2679:76 *2679:75 0.5428572

*END

*D_NET *2711 1.315201 //LENGTH 13.841 LUMPCC 0 DR

*CONN
*I *230:Q O *L 0 *C 13.208 39.048
*I *159:A1 I *L 0.666174 *C 8.496 37.680
*I *74:A3 I *L 0.539281 *C 9.408 42.392
*I *155:A1 I *L 0.549073 *C 8.344 44.520
*N *2711:4 *C 8.344 44.519
*N *2711:5 *C 9.408 42.210
*N *2711:6 *C 9.408 42.380
*N *2711:7 *C 9.395 42.392
*N *2711:8 *C 8.357 42.392
*N *2711:9 *C 8.344 42.392
*N *2711:10 *C 8.344 39.808
*N *2711:11 *C 8.496 39.808
*N *2711:12 *C 8.496 37.694
*N *2711:13 *C 8.496 38.744
*N *2711:14 *C 8.510 38.744
*N *2711:15 *C 13.195 38.744
*N *2711:16 *C 13.208 38.758
*N *2711:17 *C 13.208 39.035

*CAP
0 *230:Q 0.001
1 *159:A1 0.001
2 *74:A3 0.001
3 *155:A1 0.001
4 *2711:4 0.118382
5 *2711:5 0.01588678
6 *2711:6 0.01118518
7 *2711:7 0.04333708
8 *2711:8 0.04333708
9 *2711:9 0.2347752
10 *2711:10 0.1223074
11 *2711:11 0.08408915
12 *2711:12 0.06622212
13 *2711:13 0.144397
14 *2711:14 0.2012218
15 *2711:15 0.2012218
16 *2711:16 0.01299109
17 *2711:17 0.01184756

*RES
0 *230:Q *2711:17 1
1 *2711:13 *2711:12 1.875893
2 *2711:13 *2711:11 1.9
3 *2711:14 *2711:13 0.5
4 *2711:16 *2711:15 0.5
5 *2711:15 *2711:14 8.366072
6 *2711:17 *2711:16 0.4946429
7 *2711:12 *159:A1 1
8 *2711:4 *155:A1 1
9 *2711:9 *2711:8 0.5
10 *2711:9 *2711:4 3.798214
11 *2711:8 *2711:7 1.851786
12 *2711:6 *74:A3 1
13 *2711:6 *2711:5 0.2825
14 *2711:7 *2711:6 0.5
15 *2711:10 *2711:9 4.614286
16 *2711:11 *2711:10 0.2714286

*END

*D_NET *2713 0.6283976 //LENGTH 8.319 LUMPCC 0 DR

*CONN
*I *223:Q O *L 0 *C 13.208 29.016
*I *265:A4 I *L 0.514778 *C 7.584 29.168
*I *151:A2 I *L 0.466516 *C 6.672 29.320
*N *2713:3 *C 6.672 29.321
*N *2713:4 *C 6.672 29.611
*N *2713:5 *C 6.686 29.624
*N *2713:6 *C 7.584 29.181
*N *2713:7 *C 7.584 29.611
*N *2713:8 *C 7.584 29.624
*N *2713:9 *C 13.195 29.624
*N *2713:10 *C 13.208 29.611
*N *2713:11 *C 13.208 29.030

*CAP
0 *223:Q 0.001
1 *265:A4 0.001
2 *151:A2 0.001
3 *2713:3 0.01575168
4 *2713:4 0.01676237
5 *2713:5 0.03965664
6 *2713:6 0.03155274
7 *2713:7 0.03269627
8 *2713:8 0.2432377
9 *2713:9 0.2018021
10 *2713:10 0.02254083
11 *2713:11 0.0213973

*RES
0 *223:Q *2713:11 1
1 *2713:10 *2713:9 0.5
2 *2713:9 *2713:8 10.01875
3 *2713:11 *2713:10 1.0375
4 *2713:7 *2713:6 0.7660715
5 *2713:8 *2713:7 0.5
6 *2713:8 *2713:5 1.604464
7 *2713:6 *265:A4 1
8 *2713:4 *2713:3 0.5169644
9 *2713:5 *2713:4 0.5
10 *2713:3 *151:A2 1

*END

*D_NET *2717 0.3379617 //LENGTH 3.724 LUMPCC 0 DR

*CONN
*I *228:Q O *L 0 *C 7.888 18.984
*I *310:A4 I *L 0.514778 *C 6.824 19.136
*I *143:A2 I *L 0.466516 *C 6.520 17.464
*N *2717:3 *C 7.888 18.802
*N *2717:4 *C 6.520 17.477
*N *2717:5 *C 6.520 18.832
*N *2717:6 *C 6.824 18.832
*N *2717:7 *C 6.824 19.123
*N *2717:8 *C 6.824 18.983
*N *2717:9 *C 6.838 18.984
*N *2717:10 *C 7.875 18.984
*N *2717:11 *C 7.888 18.972

*CAP
0 *228:Q 0.001
1 *310:A4 0.001
2 *143:A2 0.001
3 *2717:3 0.01178382
4 *2717:4 0.07449193
5 *2717:5 0.09028526
6 *2717:6 0.02505837
7 *2717:7 0.01087605
8 *2717:8 0.02420719
9 *2717:9 0.04558843
10 *2717:10 0.04558843
11 *2717:11 0.007082224

*RES
0 *228:Q *2717:11 1
1 *2717:7 *310:A4 1
2 *2717:8 *2717:7 0.2341667
3 *2717:8 *2717:6 0.2696429
4 *2717:9 *2717:8 0.5
5 *2717:11 *2717:10 0.5
6 *2717:11 *2717:3 0.2825
7 *2717:10 *2717:9 1.851786
8 *2717:4 *143:A2 1
9 *2717:5 *2717:4 2.41875
10 *2717:6 *2717:5 0.5428572

*END

*D_NET *2721 1.233525 //LENGTH 14.121 LUMPCC 0 DR

*CONN
*I *232:Q O *L 0 *C 16.704 5.608
*I *504:A3 I *L 0.539281 *C 11.536 5.608
*I *139:A1 I *L 0.666174 *C 10.624 9.104
*I *203:A1 I *L 0.610599 *C 11.384 9.256
*I *207:A1 I *L 0.549073 *C 10.168 5.608
*N *2721:5 *C 16.704 5.426
*N *2721:6 *C 10.168 5.607
*N *2721:7 *C 10.168 5.317
*N *2721:8 *C 10.181 5.304
*N *2721:9 *C 11.384 9.242
*N *2721:10 *C 10.624 9.091
*N *2721:11 *C 10.624 8.357
*N *2721:12 *C 10.638 8.344
*N *2721:13 *C 11.370 8.344
*N *2721:14 *C 11.384 8.344
*N *2721:15 *C 11.536 5.595
*N *2721:16 *C 11.536 5.304
*N *2721:17 *C 11.384 5.304
*N *2721:18 *C 11.384 5.305
*N *2721:19 *C 11.384 5.608
*N *2721:20 *C 16.691 5.608
*N *2721:21 *C 16.704 5.596

*CAP
0 *232:Q 0.001
1 *504:A3 0.001
2 *139:A1 0.001
3 *203:A1 0.001
4 *207:A1 0.001
5 *2721:5 0.01077759
6 *2721:6 0.01615543
7 *2721:7 0.01729896
8 *2721:8 0.04626129
9 *2721:9 0.0562174
10 *2721:10 0.04143543
11 *2721:11 0.04257896
12 *2721:12 0.03633574
13 *2721:13 0.03633574
14 *2721:14 0.2305329
15 *2721:15 0.01909151
16 *2721:16 0.0293101
17 *2721:17 0.1786889
18 *2721:18 0.05664405
19 *2721:19 0.2084735
20 *2721:20 0.1963117
21 *2721:21 0.00607599

*RES
0 *232:Q *2721:21 1
1 *2721:21 *2721:20 0.5
2 *2721:21 *2721:5 0.2825
3 *2721:20 *2721:19 9.475893
4 *2721:15 *504:A3 1
5 *2721:9 *203:A1 1
6 *2721:17 *2721:16 0.2714286
7 *2721:17 *2721:14 5.428572
8 *2721:18 *2721:17 0.5
9 *2721:18 *2721:8 2.147322
10 *2721:14 *2721:13 0.5
11 *2721:14 *2721:9 1.604465
12 *2721:13 *2721:12 1.308929
13 *2721:11 *2721:10 1.308929
14 *2721:12 *2721:11 0.5
15 *2721:10 *139:A1 1
16 *2721:7 *2721:6 0.5169643
17 *2721:8 *2721:7 0.5
18 *2721:6 *207:A1 1
19 *2721:16 *2721:15 0.5187501
20 *2721:19 *2721:18 0.5410715

*END

*D_NET *2726 0.4412224 //LENGTH 4.611 LUMPCC 0 DR

*CONN
*I *325:Y O *L 0 *C 21.872 42.240
*I *242:D I *L 0.543562 *C 19.714 40.720
*N *2726:2 *C 19.455 40.720
*N *2726:3 *C 19.440 40.733
*N *2726:4 *C 19.440 41.163
*N *2726:5 *C 19.454 41.176
*N *2726:6 *C 21.858 41.176
*N *2726:7 *C 21.872 41.190
*N *2726:8 *C 21.872 42.227

*CAP
0 *325:Y 0.001
1 *242:D 0.01911375
2 *2726:2 0.01751963
3 *2726:3 0.03847668
4 *2726:4 0.03829177
5 *2726:5 0.1043885
6 *2726:6 0.1043885
7 *2726:7 0.05959349
8 *2726:8 0.05844996

*RES
0 *325:Y *2726:8 1
1 *2726:2 *242:D 0.5180001
2 *2726:3 *2726:2 1
3 *2726:4 *2726:3 0.7660714
4 *2726:5 *2726:4 0.5
5 *2726:7 *2726:6 0.5
6 *2726:6 *2726:5 4.294643
7 *2726:8 *2726:7 1.851786

*END

*D_NET *2731 1.235761 //LENGTH 14.314 LUMPCC 0 DR

*CONN
*I *301:Y O *L 0 *C 43.608 12.144
*I *246:D I *L 0.543562 *C 34.792 17.312
*N *2731:2 *C 34.792 17.299
*N *2731:3 *C 34.792 12.614
*N *2731:4 *C 34.806 12.600
*N *2731:5 *C 43.595 12.600
*N *2731:6 *C 43.608 12.587
*N *2731:7 *C 43.608 12.158

*CAP
0 *301:Y 0.001
1 *246:D 0.001
2 *2731:2 0.2207959
3 *2731:3 0.2219394
4 *2731:4 0.3742578
5 *2731:5 0.3742578
6 *2731:6 0.02182658
7 *2731:7 0.02068304

*RES
0 *301:Y *2731:7 1
1 *2731:2 *246:D 1
2 *2731:3 *2731:2 8.366072
3 *2731:4 *2731:3 0.5
4 *2731:6 *2731:5 0.5
5 *2731:5 *2731:4 15.69464
6 *2731:7 *2731:6 0.7660714

*END

*D_NET *2734 0.2413389 //LENGTH 2.286 LUMPCC 0 DR

*CONN
*I *286:Y O *L 0 *C 26.128 30.232
*I *239:D I *L 0.543562 *C 27.192 29.472
*N *2734:2 *C 26.128 30.050
*N *2734:3 *C 27.192 29.486
*N *2734:4 *C 27.192 30.219
*N *2734:5 *C 27.178 30.232
*N *2734:6 *C 26.142 30.232
*N *2734:7 *C 26.128 30.220

*CAP
0 *286:Y 0.001
1 *239:D 0.001
2 *2734:2 0.02015853
3 *2734:3 0.04246721
4 *2734:4 0.04361074
5 *2734:5 0.05870322
6 *2734:6 0.05870322
7 *2734:7 0.01569605

*RES
0 *286:Y *2734:7 1
1 *2734:3 *239:D 1
2 *2734:4 *2734:3 1.308929
3 *2734:5 *2734:4 0.5
4 *2734:7 *2734:6 0.5
5 *2734:7 *2734:2 0.2825
6 *2734:6 *2734:5 1.851786

*END

*D_NET *2738 0.5972856 //LENGTH 7.611 LUMPCC 0 DR

*CONN
*I *206:Y O *L 0 *C 45.736 22.936
*I *243:D I *L 0.543562 *C 38.744 22.784
*N *2738:2 *C 45.736 22.754
*N *2738:3 *C 38.744 22.784
*N *2738:4 *C 38.744 22.924
*N *2738:5 *C 38.758 22.936
*N *2738:6 *C 45.723 22.936
*N *2738:7 *C 45.736 22.924

*CAP
0 *206:Y 0.001
1 *243:D 0.001
2 *2738:2 0.01569403
3 *2738:3 0.01395417
4 *2738:4 0.0150977
5 *2738:5 0.2697736
6 *2738:6 0.2697736
7 *2738:7 0.01099243

*RES
0 *206:Y *2738:7 1
1 *2738:3 *243:D 1
2 *2738:4 *2738:3 0.2325
3 *2738:5 *2738:4 0.5
4 *2738:7 *2738:6 0.5
5 *2738:7 *2738:2 0.2825
6 *2738:6 *2738:5 12.4375

*END

*D_NET *2742 0.369892 //LENGTH 3.958 LUMPCC 0 DR

*CONN
*I *252:Y O *L 0 *C 45.584 20.656
*I *206:A1 I *L 0.47841 *C 44.064 22.632
*N *2742:2 *C 44.064 22.450
*N *2742:3 *C 44.064 22.620
*N *2742:4 *C 44.078 22.632
*N *2742:5 *C 45.571 22.632
*N *2742:6 *C 45.584 22.619
*N *2742:7 *C 45.584 20.669

*CAP
0 *252:Y 0.001
1 *206:A1 0.001
2 *2742:2 0.01480258
3 *2742:3 0.01010098
4 *2742:4 0.06608535
5 *2742:5 0.06608535
6 *2742:6 0.1059806
7 *2742:7 0.1048371

*RES
0 *252:Y *2742:7 1
1 *2742:3 *206:A1 1
2 *2742:3 *2742:2 0.2825
3 *2742:4 *2742:3 0.5
4 *2742:6 *2742:5 0.5
5 *2742:5 *2742:4 2.666071
6 *2742:7 *2742:6 3.480358

*END

*D_NET *2746 0.2345179 //LENGTH 2.996 LUMPCC 0 DR

*CONN
*I *276:Y O *L 0 *C 31.296 34.032
*I *277:A4 I *L 0.552216 *C 29.168 34.488
*N *2746:2 *C 29.168 34.356
*N *2746:3 *C 29.168 34.476
*N *2746:4 *C 29.181 34.488
*N *2746:5 *C 31.283 34.488
*N *2746:6 *C 31.296 34.474
*N *2746:7 *C 31.296 34.046

*CAP
0 *276:Y 0.001
1 *277:A4 0.001
2 *2746:2 0.01302702
3 *2746:3 0.006842887
4 *2746:4 0.08670091
5 *2746:5 0.08818343
6 *2746:6 0.01945359
7 *2746:7 0.01831006

*RES
0 *276:Y *2746:7 1
1 *2746:3 *277:A4 1
2 *2746:3 *2746:2 0.1991667
3 *2746:4 *2746:3 0.5
4 *2746:6 *2746:5 0.5
5 *2746:5 *2746:4 3.751786
6 *2746:7 *2746:6 0.7660713

*END

*D_NET *2748 0.4741996 //LENGTH 5.169 LUMPCC 0 DR

*CONN
*I *280:Y O *L 0 *C 29.776 27.648
*I *281:A2 I *L 0.466516 *C 31.448 30.840
*N *2748:2 *C 31.448 30.839
*N *2748:3 *C 31.448 28.726
*N *2748:4 *C 31.434 28.712
*N *2748:5 *C 29.790 28.712
*N *2748:6 *C 29.776 28.699
*N *2748:7 *C 29.776 27.662

*CAP
0 *280:Y 0.001
1 *281:A2 0.001
2 *2748:2 0.09011945
3 *2748:3 0.09113013
4 *2748:4 0.07184907
5 *2748:5 0.07184907
6 *2748:6 0.07419771
7 *2748:7 0.07305419

*RES
0 *280:Y *2748:7 1
1 *2748:2 *281:A2 1
2 *2748:3 *2748:2 3.774107
3 *2748:4 *2748:3 0.5
4 *2748:6 *2748:5 0.5
5 *2748:5 *2748:4 2.9375
6 *2748:7 *2748:6 1.851786

*END

*D_NET *2751 0.2653578 //LENGTH 3.097 LUMPCC 0 DR

*CONN
*I *282:Y O *L 0 *C 35.400 34.336
*I *283:A1 I *L 0.484201 *C 35.248 32.664
*I *283:A3 I *L 0.539281 *C 34.640 32.360
*N *2751:3 *C 34.640 32.373
*N *2751:4 *C 34.640 32.651
*N *2751:5 *C 34.654 32.664
*N *2751:6 *C 35.235 32.664
*N *2751:7 *C 35.249 32.664
*N *2751:8 *C 35.400 32.664
*N *2751:9 *C 35.400 34.323

*CAP
0 *282:Y 0.001
1 *283:A1 0.001
2 *283:A3 0.001
3 *2751:3 0.01713444
4 *2751:4 0.01827797
5 *2751:5 0.02814703
6 *2751:6 0.02814703
7 *2751:7 0.002354495
8 *2751:8 0.08913773
9 *2751:9 0.07915907

*RES
0 *282:Y *2751:9 1
1 *2751:9 *2751:8 2.961607
2 *2751:7 *283:A1 1
3 *2751:7 *2751:6 0.5
4 *2751:6 *2751:5 1.0375
5 *2751:4 *2751:3 0.4946429
6 *2751:5 *2751:4 0.5
7 *2751:3 *283:A3 1
8 *2751:8 *2751:7 0.2696429

*END

*D_NET *2755 0.8054546 //LENGTH 9.400 LUMPCC 0 DR

*CONN
*I *284:Y O *L 0 *C 32.816 28.864
*I *286:A1 I *L 0.549073 *C 25.976 31.144
*N *2755:2 *C 25.976 31.143
*N *2755:3 *C 25.976 29.030
*N *2755:4 *C 25.989 29.016
*N *2755:5 *C 32.803 29.016
*N *2755:6 *C 32.816 29.003
*N *2755:7 *C 32.816 28.865

*CAP
0 *284:Y 0.001
1 *286:A1 0.001
2 *2755:2 0.130283
3 *2755:3 0.1314266
4 *2755:4 0.2602316
5 *2755:5 0.2602316
6 *2755:6 0.01121274
7 *2755:7 0.01006921

*RES
0 *284:Y *2755:7 1
1 *2755:2 *286:A1 1
2 *2755:3 *2755:2 3.774107
3 *2755:4 *2755:3 0.5
4 *2755:6 *2755:5 0.5
5 *2755:5 *2755:4 12.16607
6 *2755:7 *2755:6 0.2455357

*END

*D_NET *2758 0.585067 //LENGTH 7.890 LUMPCC 0 DR

*CONN
*I *264:Y O *L 0 *C 47.547 20.590
*I *206:A4 I *L 0.504499 *C 44.368 22.480
*I *290:A1 I *L 0.601783 *C 47.256 24.304
*N *2758:3 *C 47.256 24.291
*N *2758:4 *C 47.256 22.328
*N *2758:5 *C 47.408 22.328
*N *2758:6 *C 44.368 22.466
*N *2758:7 *C 44.368 22.038
*N *2758:8 *C 44.382 22.024
*N *2758:9 *C 47.395 22.024
*N *2758:10 *C 47.408 22.024
*N *2758:11 *C 47.408 20.518

*CAP
0 *264:Y 0.001
1 *206:A4 0.001
2 *290:A1 0.001
3 *2758:3 0.08252341
4 *2758:4 0.09218372
5 *2758:5 0.01932172
6 *2758:6 0.02506727
7 *2758:7 0.0262108
8 *2758:8 0.1044918
9 *2758:9 0.1044918
10 *2758:10 0.07073185
11 *2758:11 0.05704466

*RES
0 *264:Y *2758:11 1
1 *2758:11 *2758:10 2.690179
2 *2758:3 *290:A1 1
3 *2758:10 *2758:9 0.5
4 *2758:10 *2758:5 0.5428572
5 *2758:9 *2758:8 5.380358
6 *2758:7 *2758:6 0.7660715
7 *2758:8 *2758:7 0.5
8 *2758:6 *206:A4 1
9 *2758:4 *2758:3 3.504464
10 *2758:5 *2758:4 0.2714286

*END

*D_NET *2762 0.4595531 //LENGTH 5.054 LUMPCC 0 DR

*CONN
*I *256:Y O *L 0 *C 44.233 17.464
*I *296:A4 I *L 0.565045 *C 45.280 17.464
*I *298:A3 I *L 0.456834 *C 46.496 17.464
*I *257:A2 I *L 0.466516 *C 46.648 19.288
*N *2762:4 *C 44.368 17.282
*N *2762:5 *C 46.635 19.288
*N *2762:6 *C 46.496 19.288
*N *2762:7 *C 46.496 17.477
*N *2762:8 *C 46.483 17.464
*N *2762:9 *C 45.280 17.282
*N *2762:10 *C 45.280 17.451
*N *2762:11 *C 45.280 17.464
*N *2762:12 *C 44.382 17.464
*N *2762:13 *C 44.368 17.451
*N *2762:14 *C 44.355 17.464

*CAP
0 *256:Y 0.01162567
1 *296:A4 0.001
2 *298:A3 0.001
3 *257:A2 0.001
4 *2762:4 0.01199301
5 *2762:5 0.004896584
6 *2762:6 0.1108264
7 *2762:7 0.09843853
8 *2762:8 0.04856228
9 *2762:9 0.01585492
10 *2762:10 0.01115332
11 *2762:11 0.08744615
12 *2762:12 0.03710483
13 *2762:13 0.008619849
14 *2762:14 0.01003155

*RES
0 *256:Y *2762:14 0.2033333
1 *2762:5 *257:A2 1
2 *2762:7 *298:A3 1
3 *2762:7 *2762:6 3.233036
4 *2762:8 *2762:7 0.5
5 *2762:10 *296:A4 1
6 *2762:10 *2762:9 0.2825
7 *2762:11 *2762:10 0.5
8 *2762:11 *2762:8 2.147322
9 *2762:13 *2762:12 0.5
10 *2762:13 *2762:4 0.2825
11 *2762:12 *2762:11 1.604464
12 *2762:14 *2762:13 1
13 *2762:6 *2762:5 0.2473214

*END

*D_NET *2766 1.546535 //LENGTH 17.992 LUMPCC 0 DR

*CONN
*I *263:Y O *L 0 *C 44.368 27.648
*I *264:A3 I *L 0.465144 *C 46.952 20.960
*I *299:A1 I *L 0.549073 *C 46.952 14.424
*I *294:A I *L 0.582888 *C 47.256 15.944
*N *2766:4 *C 47.256 15.958
*N *2766:5 *C 47.256 16.552
*N *2766:6 *C 46.966 14.424
*N *2766:7 *C 47.104 14.424
*N *2766:8 *C 47.104 16.552
*N *2766:9 *C 47.104 21.416
*N *2766:10 *C 46.952 20.974
*N *2766:11 *C 46.952 21.416
*N *2766:12 *C 46.952 27.178
*N *2766:13 *C 46.939 27.192
*N *2766:14 *C 44.382 27.192
*N *2766:15 *C 44.368 27.206
*N *2766:16 *C 44.368 27.635

*CAP
0 *263:Y 0.001
1 *264:A3 0.001
2 *299:A1 0.001
3 *294:A 0.001
4 *2766:4 0.04288805
5 *2766:5 0.05274935
6 *2766:6 0.004589534
7 *2766:7 0.1042266
8 *2766:8 0.3157759
9 *2766:9 0.2189206
10 *2766:10 0.02102832
11 *2766:11 0.2777984
12 *2766:12 0.2452706
13 *2766:13 0.101675
14 *2766:14 0.101675
15 *2766:15 0.02854073
16 *2766:16 0.0273972

*RES
0 *263:Y *2766:16 1
1 *2766:4 *294:A 1
2 *2766:10 *264:A3 1
3 *2766:6 *299:A1 1
4 *2766:12 *2766:11 10.29018
5 *2766:13 *2766:12 0.5
6 *2766:15 *2766:14 0.5
7 *2766:14 *2766:13 4.566072
8 *2766:16 *2766:15 0.7660714
9 *2766:7 *2766:6 0.2473214
10 *2766:11 *2766:10 0.7901787
11 *2766:11 *2766:9 0.2714286
12 *2766:9 *2766:8 8.685715
13 *2766:8 *2766:7 3.8
14 *2766:8 *2766:5 0.2714286
15 *2766:5 *2766:4 1.061607

*END

*D_NET *2771 1.471184 //LENGTH 15.121 LUMPCC 0 DR

*CONN
*I *298:Y O *L 0 *C 47.408 17.464
*I *302:A1 I *L 0.520769 *C 46.496 15.792
*I *300:A4 I *L 0.513828 *C 45.584 12.448
*I *507:A4 I *L 0.514778 *C 44.368 10.928
*I *303:A3 I *L 0.456834 *C 46.648 9.256
*I *302:A3 I *L 0.518192 *C 46.040 16.552
*N *2771:6 *C 46.040 16.538
*N *2771:7 *C 46.648 9.270
*N *2771:8 *C 46.648 10.155
*N *2771:9 *C 46.635 10.168
*N *2771:10 *C 44.368 10.915
*N *2771:11 *C 44.368 10.181
*N *2771:12 *C 44.382 10.168
*N *2771:13 *C 45.736 10.168
*N *2771:14 *C 45.736 10.181
*N *2771:15 *C 45.584 12.434
*N *2771:16 *C 45.584 12.296
*N *2771:17 *C 45.736 12.296
*N *2771:18 *C 45.736 15.792
*N *2771:19 *C 45.888 15.792
*N *2771:20 *C 45.888 16.248
*N *2771:21 *C 46.040 16.249
*N *2771:22 *C 46.041 16.248
*N *2771:23 *C 46.496 15.806
*N *2771:24 *C 46.496 16.235
*N *2771:25 *C 46.496 16.248
*N *2771:26 *C 47.395 16.248
*N *2771:27 *C 47.408 16.262
*N *2771:28 *C 47.408 17.451

*CAP
0 *298:Y 0.001
1 *302:A1 0.001
2 *300:A4 0.001
3 *507:A4 0.001
4 *303:A3 0.001
5 *302:A3 0.001
6 *2771:6 0.02261171
7 *2771:7 0.03976951
8 *2771:8 0.04091304
9 *2771:9 0.03486076
10 *2771:10 0.03376224
11 *2771:11 0.03490577
12 *2771:12 0.05611682
13 *2771:13 0.09275661
14 *2771:14 0.1278298
15 *2771:15 0.01363493
16 *2771:16 0.02364735
17 *2771:17 0.3455357
18 *2771:18 0.2174812
19 *2771:19 0.03785221
20 *2771:20 0.03787943
21 *2771:21 0.03242669
22 *2771:22 0.01755348
23 *2771:23 0.02933509
24 *2771:24 0.03047862
25 *2771:25 0.05199518
26 *2771:26 0.03266267
27 *2771:27 0.05615962
28 *2771:28 0.05501609

*RES
0 *298:Y *2771:28 1
1 *2771:27 *2771:26 0.5
2 *2771:26 *2771:25 1.604465
3 *2771:28 *2771:27 2.123214
4 *2771:24 *2771:23 0.7660715
5 *2771:25 *2771:24 0.5
6 *2771:25 *2771:22 0.8125
7 *2771:23 *302:A1 1
8 *2771:6 *302:A3 1
9 *2771:21 *2771:20 0.2714286
10 *2771:21 *2771:6 0.5169643
11 *2771:22 *2771:21 0.5
12 *2771:8 *2771:7 1.580357
13 *2771:9 *2771:8 0.5
14 *2771:7 *303:A3 1
15 *2771:14 *2771:13 0.5
16 *2771:13 *2771:12 2.41875
17 *2771:13 *2771:9 1.604464
18 *2771:15 *300:A4 1
19 *2771:11 *2771:10 1.308929
20 *2771:12 *2771:11 0.5
21 *2771:10 *507:A4 1
22 *2771:16 *2771:15 0.2473214
23 *2771:17 *2771:16 0.2714286
24 *2771:17 *2771:14 3.775893
25 *2771:18 *2771:17 6.242857
26 *2771:19 *2771:18 0.2714286
27 *2771:20 *2771:19 0.8142857

*END

*D_NET *2778 3.048023 //LENGTH 33.693 LUMPCC 0 DR

*CONN
*I *419:Y O *L 0 *C 42.255 27.511
*I *158:A I *L 1.421261 *C 42.696 25.976
*I *172:A I *L 0.732103 *C 41.176 25.976
*I *266:A2 I *L 0.697809 *C 45.582 24.000
*I *202:A1 I *L 0.520769 *C 46.040 14.272
*I *301:A1 I *L 0.526794 *C 43.000 12.448
*I *321:A3 I *L 0.507548 *C 41.328 10.168
*I *508:A3 I *L 0.518192 *C 39.404 10.168
*I *264:A1 I *L 0.526361 *C 46.496 20.808
*N *2778:9 *C 46.496 20.794
*N *2778:10 *C 46.496 20.504
*N *2778:11 *C 39.352 9.986
*N *2778:12 *C 39.352 10.168
*N *2778:13 *C 39.352 10.155
*N *2778:14 *C 39.366 10.168
*N *2778:15 *C 41.315 10.168
*N *2778:16 *C 41.328 10.181
*N *2778:17 *C 41.328 11.675
*N *2778:18 *C 41.342 11.688
*N *2778:19 *C 42.986 11.688
*N *2778:20 *C 43.000 11.702
*N *2778:21 *C 43.000 12.448
*N *2778:22 *C 43.000 13.498
*N *2778:23 *C 43.014 13.512
*N *2778:24 *C 46.027 13.512
*N *2778:25 *C 46.040 13.526
*N *2778:26 *C 46.040 14.272
*N *2778:27 *C 46.040 15.019
*N *2778:28 *C 46.053 15.032
*N *2778:29 *C 46.331 15.032
*N *2778:30 *C 46.344 15.046
*N *2778:31 *C 46.344 18.072
*N *2778:32 *C 46.192 18.072
*N *2778:33 *C 46.192 20.504
*N *2778:34 *C 46.178 20.504
*N *2778:35 *C 45.446 20.504
*N *2778:36 *C 45.432 20.518
*N *2778:37 *C 45.432 22.784
*N *2778:38 *C 45.584 22.784
*N *2778:39 *C 45.582 24.000
*N *2778:40 *C 45.584 24.747
*N *2778:41 *C 45.571 24.760
*N *2778:42 *C 42.710 24.760
*N *2778:43 *C 42.696 24.774
*N *2778:44 *C 41.176 25.975
*N *2778:45 *C 41.176 25.382
*N *2778:46 *C 41.190 25.368
*N *2778:47 *C 42.683 25.368
*N *2778:48 *C 42.696 25.368
*N *2778:49 *C 42.696 25.976
*N *2778:50 *C 42.696 27.483
*N *2778:51 *C 42.681 27.496

*CAP
0 *419:Y 0.02728894
1 *158:A 0.001
2 *172:A 0.001
3 *266:A2 0.001
4 *202:A1 0.001
5 *301:A1 0.001
6 *321:A3 0.001
7 *508:A3 0.008463573
8 *264:A1 0.001
9 *2778:9 0.01550309
10 *2778:10 0.03010312
11 *2778:11 0.01547856
12 *2778:12 0.006869446
13 *2778:13 0.0121054
14 *2778:14 0.08900775
15 *2778:15 0.08900775
16 *2778:16 0.08148629
17 *2778:17 0.08440886
18 *2778:18 0.07290939
19 *2778:19 0.07290939
20 *2778:20 0.03208821
21 *2778:21 0.07661354
22 *2778:22 0.04388982
23 *2778:23 0.1334116
24 *2778:24 0.1334116
25 *2778:25 0.04166272
26 *2778:26 0.08476996
27 *2778:27 0.04247173
28 *2778:28 0.01408247
29 *2778:29 0.01408247
30 *2778:30 0.1817518
31 *2778:31 0.1917281
32 *2778:32 0.1501924
33 *2778:33 0.1518935
34 *2778:34 0.02741773
35 *2778:35 0.02741773
36 *2778:36 0.1316304
37 *2778:37 0.1409013
38 *2778:38 0.06513447
39 *2778:39 0.09216405
40 *2778:40 0.03078728
41 *2778:41 0.1011877
42 *2778:42 0.1011877
43 *2778:43 0.02528813
44 *2778:44 0.02356258
45 *2778:45 0.02470612
46 *2778:46 0.0601172
47 *2778:47 0.0601172
48 *2778:48 0.04995829
49 *2778:49 0.08975069
50 *2778:50 0.06640898
51 *2778:51 0.02569481

*RES
0 *419:Y *2778:51 0.765
1 *2778:9 *264:A1 1
2 *2778:30 *2778:29 0.5
3 *2778:29 *2778:28 0.4946429
4 *2778:27 *2778:26 1.333036
5 *2778:28 *2778:27 0.5
6 *2778:26 *202:A1 1
7 *2778:26 *2778:25 1.333036
8 *2778:39 *266:A2 0.5
9 *2778:39 *2778:38 2.171429
10 *2778:33 *2778:32 4.342857
11 *2778:33 *2778:10 0.5428572
12 *2778:34 *2778:33 0.5
13 *2778:36 *2778:35 0.5
14 *2778:35 *2778:34 1.308929
15 *2778:25 *2778:24 0.5
16 *2778:24 *2778:23 5.380358
17 *2778:22 *2778:21 1.875893
18 *2778:23 *2778:22 0.5
19 *2778:21 *301:A1 1
20 *2778:21 *2778:20 1.333036
21 *2778:49 *158:A 1
22 *2778:49 *2778:48 1.085714
23 *2778:40 *2778:39 1.333036
24 *2778:41 *2778:40 0.5
25 *2778:43 *2778:42 0.5
26 *2778:42 *2778:41 5.108929
27 *2778:51 *2778:50 1
28 *2778:50 *2778:49 2.690179
29 *2778:20 *2778:19 0.5
30 *2778:19 *2778:18 2.9375
31 *2778:17 *2778:16 2.666071
32 *2778:18 *2778:17 0.5
33 *2778:16 *321:A3 1
34 *2778:16 *2778:15 0.5
35 *2778:48 *2778:47 0.5
36 *2778:48 *2778:43 1.061607
37 *2778:47 *2778:46 2.666071
38 *2778:45 *2778:44 1.059821
39 *2778:46 *2778:45 0.5
40 *2778:44 *172:A 1
41 *2778:15 *2778:14 3.480358
42 *2778:13 *2778:12 1
43 *2778:13 *2778:11 0.2825
44 *2778:14 *2778:13 0.5
45 *2778:12 *508:A3 0.09166668
46 *2778:37 *2778:36 4.047322
47 *2778:38 *2778:37 0.2714286
48 *2778:32 *2778:31 0.2714286
49 *2778:31 *2778:30 5.404465
50 *2778:10 *2778:9 0.5187501

*END

*D_NET *2790 0.51807 //LENGTH 4.060 LUMPCC 0 DR

*CONN
*I *329:Y O *L 0 *C 36.160 25.824
*I *330:A2 I *L 0.466516 *C 34.184 24.152
*N *2790:2 *C 34.184 24.020
*N *2790:3 *C 34.184 24.140
*N *2790:4 *C 34.198 24.152
*N *2790:5 *C 36.147 24.152
*N *2790:6 *C 36.160 24.166
*N *2790:7 *C 36.160 25.811

*CAP
0 *329:Y 0.001
1 *330:A2 0.001
2 *2790:2 0.01106965
3 *2790:3 0.005018368
4 *2790:4 0.1348469
5 *2790:5 0.1363295
6 *2790:6 0.1149746
7 *2790:7 0.113831

*RES
0 *329:Y *2790:7 1
1 *2790:3 *330:A2 1
2 *2790:3 *2790:2 0.1991667
3 *2790:4 *2790:3 0.5
4 *2790:6 *2790:5 0.5
5 *2790:5 *2790:4 3.480357
6 *2790:7 *2790:6 2.9375

*END

*D_NET *2793 0.8864834 //LENGTH 8.502 LUMPCC 0 DR

*CONN
*I *287:Y O *L 0 *C 42.392 24.152
*I *295:A5 I *L 0.583269 *C 41.632 17.464
*I *288:A2 I *L 0.55521 *C 42.544 19.136
*N *2793:3 *C 42.544 19.123
*N *2793:4 *C 42.544 18.680
*N *2793:5 *C 41.632 17.465
*N *2793:6 *C 41.632 18.666
*N *2793:7 *C 41.646 18.680
*N *2793:8 *C 42.379 18.680
*N *2793:9 *C 42.392 18.680
*N *2793:10 *C 42.392 24.139

*CAP
0 *287:Y 0.001
1 *295:A5 0.001
2 *288:A2 0.001
3 *2793:3 0.03067651
4 *2793:4 0.04119623
5 *2793:5 0.05461193
6 *2793:6 0.05575546
7 *2793:7 0.0373338
8 *2793:8 0.0373338
9 *2793:9 0.3176582
10 *2793:10 0.3089175

*RES
0 *287:Y *2793:10 1
1 *2793:3 *288:A2 1
2 *2793:10 *2793:9 9.747322
3 *2793:9 *2793:8 0.5
4 *2793:9 *2793:4 0.2714286
5 *2793:8 *2793:7 1.308929
6 *2793:6 *2793:5 2.145536
7 *2793:7 *2793:6 0.5
8 *2793:5 *295:A5 1
9 *2793:4 *2793:3 0.7901787

*END

*D_NET *2797 1.246299 //LENGTH 14.361 LUMPCC 0 DR

*CONN
*I *240:QN O *L 0 *C 27.662 38.909
*I *260:A1 I *L 0.532953 *C 24.912 40.872
*I *210:A2 I *L 0.498632 *C 30.992 42.848
*I *316:A3 I *L 0.548175 *C 29.320 43.608
*I *236:A4 I *L 0.554348 *C 27.800 41.176
*N *2797:5 *C 27.800 41.163
*N *2797:6 *C 29.320 43.622
*N *2797:7 *C 29.320 43.899
*N *2797:8 *C 29.334 43.912
*N *2797:9 *C 30.979 43.912
*N *2797:10 *C 30.992 43.899
*N *2797:11 *C 30.992 42.848
*N *2797:12 *C 30.992 40.886
*N *2797:13 *C 30.979 40.872
*N *2797:14 *C 24.912 40.690
*N *2797:15 *C 24.912 40.860
*N *2797:16 *C 24.925 40.872
*N *2797:17 *C 27.800 40.872
*N *2797:18 *C 27.800 40.872
*N *2797:19 *C 27.800 38.910
*N *2797:20 *C 27.788 38.896

*CAP
0 *240:QN 0.01032166
1 *260:A1 0.001
2 *210:A2 0.001
3 *316:A3 0.001
4 *236:A4 0.001
5 *2797:5 0.01465629
6 *2797:6 0.02086479
7 *2797:7 0.02200832
8 *2797:8 0.07241751
9 *2797:9 0.07241751
10 *2797:10 0.05926445
11 *2797:11 0.1633908
12 *2797:12 0.1034908
13 *2797:13 0.1257242
14 *2797:14 0.01417828
15 *2797:15 0.009476684
16 *2797:16 0.1127342
17 *2797:17 0.2402374
18 *2797:18 0.1048914
19 *2797:19 0.08749747
20 *2797:20 0.008727533

*RES
0 *240:QN *2797:20 0.21
1 *2797:11 *210:A2 1
2 *2797:11 *2797:10 1.875893
3 *2797:10 *2797:9 0.5
4 *2797:9 *2797:8 2.9375
5 *2797:7 *2797:6 0.4946429
6 *2797:8 *2797:7 0.5
7 *2797:6 *316:A3 1
8 *2797:12 *2797:11 3.504464
9 *2797:13 *2797:12 0.5
10 *2797:5 *236:A4 1
11 *2797:18 *2797:17 0.5
12 *2797:18 *2797:5 0.5187501
13 *2797:17 *2797:16 5.133036
14 *2797:17 *2797:13 5.675893
15 *2797:20 *2797:19 1
16 *2797:19 *2797:18 3.504464
17 *2797:15 *260:A1 1
18 *2797:15 *2797:14 0.2825
19 *2797:16 *2797:15 0.5

*END

*D_NET *2800 0.7121734 //LENGTH 8.302 LUMPCC 0 DR

*CONN
*I *237:QN O *L 0 *C 36.312 37.984
*I *258:A4 I *L 0.565045 *C 32.846 34.209
*I *275:A3 I *L 0.584801 *C 34.640 34.336
*N *2800:3 *C 34.640 34.349
*N *2800:4 *C 33.561 34.184
*N *2800:5 *C 33.576 34.198
*N *2800:6 *C 33.576 34.779
*N *2800:7 *C 33.590 34.792
*N *2800:8 *C 34.627 34.792
*N *2800:9 *C 34.640 34.792
*N *2800:10 *C 34.640 37.211
*N *2800:11 *C 34.654 37.224
*N *2800:12 *C 36.299 37.224
*N *2800:13 *C 36.312 37.238
*N *2800:14 *C 36.312 37.983

*CAP
0 *237:QN 0.001
1 *258:A4 0.04466071
2 *275:A3 0.001
3 *2800:3 0.02656238
4 *2800:4 0.04306659
5 *2800:5 0.02696694
6 *2800:6 0.02678203
7 *2800:7 0.04816702
8 *2800:8 0.04816702
9 *2800:9 0.136043
10 *2800:10 0.1065581
11 *2800:11 0.0598524
12 *2800:12 0.0598524
13 *2800:13 0.04231922
14 *2800:14 0.04117569

*RES
0 *237:QN *2800:14 1
1 *2800:10 *2800:9 4.31875
2 *2800:11 *2800:10 0.5
3 *2800:13 *2800:12 0.5
4 *2800:12 *2800:11 2.9375
5 *2800:14 *2800:13 1.33125
6 *2800:3 *275:A3 1
7 *2800:9 *2800:8 0.5
8 *2800:9 *2800:3 0.7901785
9 *2800:8 *2800:7 1.851786
10 *2800:6 *2800:5 1.0375
11 *2800:7 *2800:6 0.5
12 *2800:4 *258:A4 1.43
13 *2800:5 *2800:4 1

*END

*D_NET *2805 0.3722368 //LENGTH 4.342 LUMPCC 0 DR

*CONN
*I *244:QN O *L 0 *C 43.000 15.488
*I *295:A6 I *L 0.609639 *C 41.784 17.008
*I *256:A4 I *L 0.565045 *C 43.608 17.464
*N *2805:3 *C 43.608 17.451
*N *2805:4 *C 43.608 16.870
*N *2805:5 *C 43.595 16.856
*N *2805:6 *C 41.784 17.007
*N *2805:7 *C 41.784 16.870
*N *2805:8 *C 41.797 16.856
*N *2805:9 *C 43.000 16.856
*N *2805:10 *C 43.000 16.843
*N *2805:11 *C 43.000 15.489

*CAP
0 *244:QN 0.001
1 *295:A6 0.001
2 *256:A4 0.001
3 *2805:3 0.04179383
4 *2805:4 0.04293736
5 *2805:5 0.02219732
6 *2805:6 0.009464188
7 *2805:7 0.01060772
8 *2805:8 0.04649669
9 *2805:9 0.07047305
10 *2805:10 0.06320512
11 *2805:11 0.06206159

*RES
0 *244:QN *2805:11 1
1 *2805:4 *2805:3 1.0375
2 *2805:5 *2805:4 0.5
3 *2805:3 *256:A4 1
4 *2805:10 *2805:9 0.5
5 *2805:9 *2805:8 2.147321
6 *2805:9 *2805:5 1.061607
7 *2805:11 *2805:10 2.416964
8 *2805:7 *2805:6 0.2455357
9 *2805:8 *2805:7 0.5
10 *2805:6 *295:A6 1

*END

*D_NET *2807 0.7115691 //LENGTH 9.026 LUMPCC 0 DR

*CONN
*I *249:QN O *L 0 *C 34.944 24.608
*I *328:A3 I *L 0.507548 *C 40.316 23.544
*I *328:A1 I *L 0.514394 *C 40.872 24.304
*N *2807:3 *C 40.872 24.318
*N *2807:4 *C 40.872 24.747
*N *2807:5 *C 40.858 24.760
*N *2807:6 *C 40.264 23.544
*N *2807:7 *C 40.264 23.558
*N *2807:8 *C 40.264 24.747
*N *2807:9 *C 40.264 24.760
*N *2807:10 *C 40.264 25.064
*N *2807:11 *C 34.958 25.064
*N *2807:12 *C 34.944 25.050
*N *2807:13 *C 34.944 24.609

*CAP
0 *249:QN 0.001
1 *328:A3 0.008559279
2 *328:A1 0.001
3 *2807:3 0.01941649
4 *2807:4 0.02056002
5 *2807:5 0.02384298
6 *2807:6 0.006965152
7 *2807:7 0.06464616
8 *2807:8 0.06446125
9 *2807:9 0.03474383
10 *2807:10 0.2164956
11 *2807:11 0.2038158
12 *2807:12 0.02360305
13 *2807:13 0.02245951

*RES
0 *249:QN *2807:13 1
1 *2807:4 *2807:3 0.7660714
2 *2807:5 *2807:4 0.5
3 *2807:3 *328:A1 1
4 *2807:8 *2807:7 2.123214
5 *2807:9 *2807:8 0.5
6 *2807:9 *2807:5 1.061607
7 *2807:6 *328:A3 0.09166668
8 *2807:7 *2807:6 1
9 *2807:12 *2807:11 0.5
10 *2807:11 *2807:10 9.475893
11 *2807:13 *2807:12 0.788393
12 *2807:10 *2807:9 0.5428572

*END

*D_NET *2810 0.24819 //LENGTH 2.719 LUMPCC 0 DR

*CONN
*I *358:Y O *L 0 *C 30.232 22.176
*I *366:D I *L 0.543569 *C 29.502 24.000
*N *2810:2 *C 30.217 24.000
*N *2810:3 *C 30.232 23.986
*N *2810:4 *C 30.232 22.190

*CAP
0 *358:Y 0.001
1 *366:D 0.03315651
2 *2810:2 0.03156239
3 *2810:3 0.09189977
4 *2810:4 0.09057134

*RES
0 *358:Y *2810:4 1
1 *2810:2 *366:D 1.43
2 *2810:3 *2810:2 1
3 *2810:4 *2810:3 3.208929

*END

*D_NET *2813 0.1510821 //LENGTH 1.526 LUMPCC 0 DR

*CONN
*I *355:Y O *L 0 *C 19.288 33.272
*I *371:D I *L 0.543569 *C 18.680 32.816
*N *2813:2 *C 19.288 33.090
*N *2813:3 *C 18.680 32.830
*N *2813:4 *C 18.680 33.259
*N *2813:5 *C 18.694 33.272
*N *2813:6 *C 19.274 33.272
*N *2813:7 *C 19.288 33.260

*CAP
0 *355:Y 0.001
1 *371:D 0.001
2 *2813:2 0.01693392
3 *2813:3 0.03024415
4 *2813:4 0.03138768
5 *2813:5 0.02850436
6 *2813:6 0.02850436
7 *2813:7 0.01350762

*RES
0 *355:Y *2813:7 1
1 *2813:3 *371:D 1
2 *2813:4 *2813:3 0.7660714
3 *2813:5 *2813:4 0.5
4 *2813:7 *2813:6 0.5
5 *2813:7 *2813:2 0.2825
6 *2813:6 *2813:5 1.0375

*END

*D_NET *2817 0.2918455 //LENGTH 3.135 LUMPCC 0 DR

*CONN
*I *351:Y O *L 0 *C 19.258 34.640
*I *363:D I *L 0.543569 *C 18.528 36.160
*N *2817:2 *C 18.528 36.174
*N *2817:3 *C 18.528 36.312
*N *2817:4 *C 18.376 36.312
*N *2817:5 *C 18.376 34.654
*N *2817:6 *C 18.391 34.640

*CAP
0 *351:Y 0.03968127
1 *363:D 0.001
2 *2817:2 0.0113427
3 *2817:3 0.02173132
4 *2817:4 0.09453165
5 *2817:5 0.08547147
6 *2817:6 0.03808714

*RES
0 *351:Y *2817:6 1.734
1 *2817:2 *363:D 1
2 *2817:6 *2817:5 1
3 *2817:5 *2817:4 2.961607
4 *2817:4 *2817:3 0.2714286
5 *2817:3 *2817:2 0.2473214

*END

*D_NET *2821 0.4334762 //LENGTH 5.498 LUMPCC 0 DR

*CONN
*I *347:Y O *L 0 *C 24.304 8.800
*I *375:D I *L 0.543569 *C 21.872 6.064
*N *2821:2 *C 21.872 6.078
*N *2821:3 *C 21.872 8.027
*N *2821:4 *C 21.886 8.040
*N *2821:5 *C 24.291 8.040
*N *2821:6 *C 24.304 8.053
*N *2821:7 *C 24.304 8.787

*CAP
0 *347:Y 0.001
1 *375:D 0.001
2 *2821:2 0.07699946
3 *2821:3 0.07814299
4 *2821:4 0.0885628
5 *2821:5 0.0885628
6 *2821:6 0.05017581
7 *2821:7 0.04903227

*RES
0 *347:Y *2821:7 1
1 *2821:2 *375:D 1
2 *2821:3 *2821:2 3.480357
3 *2821:4 *2821:3 0.5
4 *2821:6 *2821:5 0.5
5 *2821:5 *2821:4 4.294643
6 *2821:7 *2821:6 1.308929

*END

*D_NET *2825 7.65175 //LENGTH 79.130 LUMPCC 0 DR

*CONN
*I *341:Y O *L 0 *C 30.232 26.128
*I *358:A3 I *L 0.548175 *C 29.776 23.240
*I *354:A3 I *L 0.548175 *C 24.608 26.888
*I *353:A3 I *L 0.548175 *C 18.884 26.888
*I *355:A3 I *L 0.548175 *C 19.744 33.272
*I *351:A3 I *L 0.548175 *C 19.744 33.576
*I *349:A3 I *L 0.548175 *C 18.680 40.264
*I *348:A3 I *L 0.548175 *C 14.728 43.304
*I *350:A3 I *L 0.548175 *C 20.352 36.616
*I *352:A3 I *L 0.548175 *C 20.200 30.232
*I *359:A3 I *L 0.548175 *C 30.840 16.856
*I *356:A3 I *L 0.548175 *C 27.800 10.168
*I *347:A3 I *L 0.548175 *C 24.760 9.864
*I *346:A3 I *L 0.548175 *C 23.240 9.864
*I *357:A3 I *L 0.548175 *C 29.320 10.168
*I *345:A3 I *L 0.548175 *C 31.904 6.824
*I *344:A3 I *L 0.548175 *C 34.792 6.520
*N *2825:17 *C 34.792 6.534
*N *2825:18 *C 34.792 6.811
*N *2825:19 *C 34.779 6.824
*N *2825:20 *C 31.918 6.824
*N *2825:21 *C 31.904 6.838
*N *2825:22 *C 31.904 11.675
*N *2825:23 *C 31.891 11.688
*N *2825:24 *C 29.320 9.986
*N *2825:25 *C 29.320 10.155
*N *2825:26 *C 29.306 10.168
*N *2825:27 *C 23.240 9.851
*N *2825:28 *C 23.240 9.574
*N *2825:29 *C 23.254 9.560
*N *2825:30 *C 24.747 9.560
*N *2825:31 *C 24.760 9.574
*N *2825:32 *C 24.760 9.864
*N *2825:33 *C 24.760 10.155
*N *2825:34 *C 24.774 10.168
*N *2825:35 *C 27.800 10.350
*N *2825:36 *C 27.800 10.181
*N *2825:37 *C 27.800 10.168
*N *2825:38 *C 28.560 10.168
*N *2825:39 *C 28.560 10.181
*N *2825:40 *C 28.560 11.675
*N *2825:41 *C 28.574 11.688
*N *2825:42 *C 30.536 11.688
*N *2825:43 *C 30.536 11.702
*N *2825:44 *C 30.536 16.843
*N *2825:45 *C 30.550 16.856
*N *2825:46 *C 30.827 16.856
*N *2825:47 *C 30.840 16.870
*N *2825:48 *C 30.840 25.355
*N *2825:49 *C 30.827 25.368
*N *2825:50 *C 20.200 30.050
*N *2825:51 *C 20.200 30.220
*N *2825:52 *C 20.187 30.232
*N *2825:53 *C 20.352 36.434
*N *2825:54 *C 20.352 36.604
*N *2825:55 *C 20.338 36.616
*N *2825:56 *C 14.728 43.291
*N *2825:57 *C 14.728 41.190
*N *2825:58 *C 14.742 41.176
*N *2825:59 *C 18.666 41.176
*N *2825:60 *C 18.680 41.163
*N *2825:61 *C 18.680 40.264
*N *2825:62 *C 18.680 36.630
*N *2825:63 *C 18.694 36.616
*N *2825:64 *C 19.744 36.616
*N *2825:65 *C 19.744 36.602
*N *2825:66 *C 19.744 33.576
*N *2825:67 *C 19.744 33.285
*N *2825:68 *C 19.592 33.272
*N *2825:69 *C 19.592 30.245
*N *2825:70 *C 19.592 30.232
*N *2825:71 *C 18.846 30.232
*N *2825:72 *C 18.832 30.219
*N *2825:73 *C 18.832 26.888
*N *2825:74 *C 18.832 26.902
*N *2825:75 *C 18.832 28.104
*N *2825:76 *C 18.846 28.104
*N *2825:77 *C 24.595 28.104
*N *2825:78 *C 24.608 28.091
*N *2825:79 *C 24.608 26.888
*N *2825:80 *C 24.608 25.382
*N *2825:81 *C 24.622 25.368
*N *2825:82 *C 29.775 23.240
*N *2825:83 *C 29.624 23.240
*N *2825:84 *C 29.624 25.355
*N *2825:85 *C 29.624 25.368
*N *2825:86 *C 30.232 25.368
*N *2825:87 *C 30.232 25.382
*N *2825:88 *C 30.232 26.114

*CAP
0 *341:Y 0.001
1 *358:A3 0.001
2 *354:A3 0.001
3 *353:A3 0.008514985
4 *355:A3 0.001
5 *351:A3 0.001
6 *349:A3 0.001
7 *348:A3 0.001
8 *350:A3 0.001
9 *352:A3 0.001
10 *359:A3 0.001
11 *356:A3 0.001
12 *347:A3 0.001
13 *346:A3 0.001
14 *357:A3 0.001
15 *345:A3 0.001
16 *344:A3 0.001
17 *2825:17 0.01991595
18 *2825:18 0.02105948
19 *2825:19 0.1097278
20 *2825:20 0.1097278
21 *2825:21 0.2463696
22 *2825:22 0.2492922
23 *2825:23 0.0612763
24 *2825:24 0.01501778
25 *2825:25 0.01031618
26 *2825:26 0.03450684
27 *2825:27 0.01472333
28 *2825:28 0.01586686
29 *2825:29 0.07144051
30 *2825:30 0.07144051
31 *2825:31 0.01547184
32 *2825:32 0.03046782
33 *2825:33 0.01436048
34 *2825:34 0.1257111
35 *2825:35 0.01330901
36 *2825:36 0.008607407
37 *2825:37 0.157808
38 *2825:38 0.06660375
39 *2825:39 0.07953334
40 *2825:40 0.07953334
41 *2825:41 0.09097638
42 *2825:42 0.1540317
43 *2825:43 0.317007
44 *2825:44 0.317007
45 *2825:45 0.01569583
46 *2825:46 0.01569583
47 *2825:47 0.4518776
48 *2825:48 0.4548002
49 *2825:49 0.02390602
50 *2825:50 0.01401597
51 *2825:51 0.009314367
52 *2825:52 0.03090772
53 *2825:53 0.01483318
54 *2825:54 0.01013158
55 *2825:55 0.02491482
56 *2825:56 0.1307895
57 *2825:57 0.1319331
58 *2825:58 0.1416127
59 *2825:59 0.1416127
60 *2825:60 0.05088023
61 *2825:61 0.2342138
62 *2825:62 0.1826981
63 *2825:63 0.0435378
64 *2825:64 0.07023165
65 *2825:65 0.1992189
66 *2825:66 0.2179781
67 *2825:67 0.02457932
68 *2825:68 0.2045119
69 *2825:69 0.1951337
70 *2825:70 0.06934913
71 *2825:71 0.03666237
72 *2825:72 0.1423849
73 *2825:73 0.006920857
74 *2825:74 0.07419349
75 *2825:75 0.2181725
76 *2825:76 0.2130428
77 *2825:77 0.2130428
78 *2825:78 0.07338145
79 *2825:79 0.1698807
80 *2825:80 0.09586374
81 *2825:81 0.2016916
82 *2825:82 0.004450527
83 *2825:83 0.1016167
84 *2825:84 0.09246459
85 *2825:85 0.2261371
86 *2825:86 0.0483516
87 *2825:87 0.04231985
88 *2825:88 0.04117632

*RES
0 *341:Y *2825:88 1
1 *2825:21 *345:A3 1
2 *2825:21 *2825:20 0.5
3 *2825:20 *2825:19 5.108929
4 *2825:18 *2825:17 0.4946429
5 *2825:19 *2825:18 0.5
6 *2825:17 *344:A3 1
7 *2825:47 *359:A3 1
8 *2825:47 *2825:46 0.5
9 *2825:22 *2825:21 8.637501
10 *2825:23 *2825:22 0.5
11 *2825:46 *2825:45 0.4946429
12 *2825:44 *2825:43 9.180358
13 *2825:45 *2825:44 0.5
14 *2825:43 *2825:42 0.5
15 *2825:42 *2825:41 3.504465
16 *2825:42 *2825:23 2.41875
17 *2825:48 *2825:47 15.15179
18 *2825:49 *2825:48 0.5
19 *2825:87 *2825:86 0.5
20 *2825:86 *2825:85 1.085714
21 *2825:86 *2825:49 1.061607
22 *2825:88 *2825:87 1.308929
23 *2825:84 *2825:83 3.775893
24 *2825:85 *2825:84 0.5
25 *2825:85 *2825:81 8.933037
26 *2825:82 *358:A3 1
27 *2825:25 *357:A3 1
28 *2825:25 *2825:24 0.2825
29 *2825:26 *2825:25 0.5
30 *2825:40 *2825:39 2.666071
31 *2825:41 *2825:40 0.5
32 *2825:39 *2825:38 0.5
33 *2825:38 *2825:37 1.357143
34 *2825:38 *2825:26 1.333036
35 *2825:36 *356:A3 1
36 *2825:36 *2825:35 0.2825
37 *2825:37 *2825:36 0.5
38 *2825:37 *2825:34 5.404464
39 *2825:33 *2825:32 0.5187501
40 *2825:34 *2825:33 0.5
41 *2825:32 *347:A3 1
42 *2825:32 *2825:31 0.5187501
43 *2825:79 *354:A3 1
44 *2825:79 *2825:78 2.147322
45 *2825:80 *2825:79 2.690179
46 *2825:81 *2825:80 0.5
47 *2825:31 *2825:30 0.5
48 *2825:30 *2825:29 2.666071
49 *2825:28 *2825:27 0.4946429
50 *2825:29 *2825:28 0.5
51 *2825:27 *346:A3 1
52 *2825:54 *350:A3 1
53 *2825:54 *2825:53 0.2825
54 *2825:55 *2825:54 0.5
55 *2825:65 *2825:64 0.5
56 *2825:64 *2825:63 1.875893
57 *2825:64 *2825:55 1.061607
58 *2825:66 *351:A3 1
59 *2825:66 *2825:65 5.404465
60 *2825:67 *355:A3 1
61 *2825:67 *2825:66 0.5187501
62 *2825:51 *352:A3 1
63 *2825:51 *2825:50 0.2825
64 *2825:52 *2825:51 0.5
65 *2825:69 *2825:68 5.404465
66 *2825:70 *2825:69 0.5
67 *2825:70 *2825:52 1.061607
68 *2825:72 *2825:71 0.5
69 *2825:71 *2825:70 1.333036
70 *2825:78 *2825:77 0.5
71 *2825:77 *2825:76 10.26607
72 *2825:75 *2825:74 2.147322
73 *2825:75 *2825:72 3.775893
74 *2825:76 *2825:75 0.5
75 *2825:73 *353:A3 0.09166668
76 *2825:74 *2825:73 1
77 *2825:61 *349:A3 1
78 *2825:61 *2825:60 1.604464
79 *2825:62 *2825:61 6.490179
80 *2825:63 *2825:62 0.5
81 *2825:60 *2825:59 0.5
82 *2825:59 *2825:58 7.008929
83 *2825:57 *2825:56 3.751786
84 *2825:58 *2825:57 0.5
85 *2825:56 *348:A3 1
86 *2825:68 *2825:67 0.2714286
87 *2825:83 *2825:82 0.2696429

*END

*D_NET *2848 0.5825731 //LENGTH 8.695 LUMPCC 0 DR

*CONN
*I *493:Y O *L 0 *C 44.824 45.584
*I *413:D I *L 0.543562 *C 37.072 46.192
*N *2848:2 *C 37.072 46.180
*N *2848:3 *C 37.072 46.040
*N *2848:4 *C 37.086 46.040
*N *2848:5 *C 44.811 46.040
*N *2848:6 *C 44.824 46.027
*N *2848:7 *C 44.824 45.598

*CAP
0 *493:Y 0.001
1 *413:D 0.001
2 *2848:2 0.008293695
3 *2848:3 0.009437227
4 *2848:4 0.2529946
5 *2848:5 0.2529946
6 *2848:6 0.0289983
7 *2848:7 0.02785476

*RES
0 *493:Y *2848:7 1
1 *2848:2 *413:D 1
2 *2848:3 *2848:2 0.2325
3 *2848:4 *2848:3 0.5
4 *2848:6 *2848:5 0.5
5 *2848:5 *2848:4 13.79464
6 *2848:7 *2848:6 0.7660715

*END

*D_NET *2853 3.809442 //LENGTH 43.149 LUMPCC 0 DR

*CONN
*I *502:Y O *L 0 *C 25.550 22.782
*I *358:A1 I *L 0.501685 *C 29.320 22.632
*I *359:A1 I *L 0.501685 *C 31.296 17.464
*I *347:A1 I *L 0.501685 *C 25.216 9.256
*I *346:A1 I *L 0.501685 *C 23.696 9.256
*I *356:A1 I *L 0.501685 *C 28.256 10.776
*I *344:A1 I *L 0.501685 *C 35.248 5.912
*I *345:A1 I *L 0.501685 *C 32.360 7.432
*I *357:A1 I *L 0.501685 *C 29.776 10.776
*N *2853:9 *C 29.776 10.594
*N *2853:10 *C 29.776 10.764
*N *2853:11 *C 29.763 10.776
*N *2853:12 *C 32.360 7.419
*N *2853:13 *C 32.360 7.128
*N *2853:14 *C 35.248 5.926
*N *2853:15 *C 35.248 6.203
*N *2853:16 *C 35.235 6.216
*N *2853:17 *C 32.070 6.216
*N *2853:18 *C 32.056 6.230
*N *2853:19 *C 32.056 7.128
*N *2853:20 *C 32.056 7.129
*N *2853:21 *C 32.056 7.432
*N *2853:22 *C 28.726 7.432
*N *2853:23 *C 28.712 7.446
*N *2853:24 *C 28.712 10.763
*N *2853:25 *C 28.712 10.776
*N *2853:26 *C 28.256 10.594
*N *2853:27 *C 28.256 10.764
*N *2853:28 *C 28.256 10.776
*N *2853:29 *C 23.697 9.256
*N *2853:30 *C 23.847 9.256
*N *2853:31 *C 23.861 9.256
*N *2853:32 *C 25.216 9.074
*N *2853:33 *C 25.216 9.244
*N *2853:34 *C 25.216 9.256
*N *2853:35 *C 25.811 9.256
*N *2853:36 *C 25.824 9.270
*N *2853:37 *C 25.824 10.763
*N *2853:38 *C 25.838 10.776
*N *2853:39 *C 26.584 10.776
*N *2853:40 *C 26.584 10.790
*N *2853:41 *C 31.296 17.451
*N *2853:42 *C 31.296 17.174
*N *2853:43 *C 31.283 17.160
*N *2853:44 *C 26.598 17.160
*N *2853:45 *C 26.584 17.160
*N *2853:46 *C 29.320 22.619
*N *2853:47 *C 29.320 22.341
*N *2853:48 *C 29.306 22.328
*N *2853:49 *C 26.598 22.328
*N *2853:50 *C 26.584 22.328
*N *2853:51 *C 26.584 22.771
*N *2853:52 *C 26.569 22.784

*CAP
0 *502:Y 0.04346133
1 *358:A1 0.001
2 *359:A1 0.001
3 *347:A1 0.001
4 *346:A1 0.001
5 *356:A1 0.001
6 *344:A1 0.001
7 *345:A1 0.001
8 *357:A1 0.001
9 *2853:9 0.01506057
10 *2853:10 0.01035897
11 *2853:11 0.048933
12 *2853:12 0.01308058
13 *2853:13 0.02874049
14 *2853:14 0.01645512
15 *2853:15 0.01759865
16 *2853:16 0.1562682
17 *2853:17 0.1562682
18 *2853:18 0.05087086
19 *2853:19 0.0636082
20 *2853:20 0.00925532
21 *2853:21 0.1216582
22 *2853:22 0.1088448
23 *2853:23 0.1658087
24 *2853:24 0.1658087
25 *2853:25 0.06876612
26 *2853:26 0.01322099
27 *2853:27 0.00851939
28 *2853:28 0.08915287
29 *2853:29 0.004432399
30 *2853:30 0.005575931
31 *2853:31 0.06765284
32 *2853:32 0.01459194
33 *2853:33 0.00989034
34 *2853:34 0.1002901
35 *2853:35 0.03085821
36 *2853:36 0.08581335
37 *2853:37 0.08581335
38 *2853:38 0.03152145
39 *2853:39 0.1026202
40 *2853:40 0.291641
41 *2853:41 0.01853359
42 *2853:42 0.01967712
43 *2853:43 0.1968103
44 *2853:44 0.1968103
45 *2853:45 0.5609023
46 *2853:46 0.01817255
47 *2853:47 0.01931608
48 *2853:48 0.1078732
49 *2853:49 0.1078732
50 *2853:50 0.2901213
51 *2853:51 0.02104491
52 *2853:52 0.0418672

*RES
0 *502:Y *2853:52 2.038
1 *2853:12 *345:A1 1
2 *2853:18 *2853:17 0.5
3 *2853:17 *2853:16 5.651786
4 *2853:15 *2853:14 0.4946429
5 *2853:16 *2853:15 0.5
6 *2853:14 *344:A1 1
7 *2853:10 *357:A1 1
8 *2853:10 *2853:9 0.2825
9 *2853:11 *2853:10 0.5
10 *2853:19 *2853:18 1.604464
11 *2853:19 *2853:13 0.5428572
12 *2853:20 *2853:19 0.5
13 *2853:23 *2853:22 0.5
14 *2853:22 *2853:21 5.947322
15 *2853:24 *2853:23 5.923214
16 *2853:25 *2853:24 0.5
17 *2853:25 *2853:11 1.875893
18 *2853:27 *356:A1 1
19 *2853:27 *2853:26 0.2825
20 *2853:28 *2853:27 0.5
21 *2853:28 *2853:25 0.8142858
22 *2853:50 *2853:49 0.5
23 *2853:50 *2853:45 9.228572
24 *2853:49 *2853:48 4.8375
25 *2853:47 *2853:46 0.4946429
26 *2853:48 *2853:47 0.5
27 *2853:46 *358:A1 1
28 *2853:45 *2853:44 0.5
29 *2853:45 *2853:40 11.37589
30 *2853:44 *2853:43 8.366072
31 *2853:42 *2853:41 0.4946429
32 *2853:43 *2853:42 0.5
33 *2853:41 *359:A1 1
34 *2853:40 *2853:39 0.5
35 *2853:39 *2853:38 1.333036
36 *2853:39 *2853:28 2.985714
37 *2853:52 *2853:51 1
38 *2853:51 *2853:50 0.7901787
39 *2853:37 *2853:36 2.666071
40 *2853:38 *2853:37 0.5
41 *2853:36 *2853:35 0.5
42 *2853:35 *2853:34 1.061607
43 *2853:33 *347:A1 1
44 *2853:33 *2853:32 0.2825
45 *2853:34 *2853:33 0.5
46 *2853:34 *2853:31 2.41875
47 *2853:30 *2853:29 0.2678572
48 *2853:31 *2853:30 0.5
49 *2853:29 *346:A1 1
50 *2853:13 *2853:12 0.5187501
51 *2853:21 *2853:20 0.5410715

*END

*D_NET *2867 0.6435937 //LENGTH 7.285 LUMPCC 0 DR

*CONN
*I *474:Y O *L 0 *C 43.608 27.648
*I *475:A3 I *L 0.519105 *C 44.824 29.168
*I *164:A2 I *L 0.507925 *C 46.344 25.216
*N *2867:3 *C 46.344 25.230
*N *2867:4 *C 46.344 27.787
*N *2867:5 *C 46.331 27.800
*N *2867:6 *C 44.824 29.155
*N *2867:7 *C 44.824 27.814
*N *2867:8 *C 44.824 27.800
*N *2867:9 *C 43.622 27.800
*N *2867:10 *C 43.608 27.788
*N *2867:11 *C 43.608 27.648

*CAP
0 *474:Y 0.001
1 *475:A3 0.001
2 *164:A2 0.001
3 *2867:3 0.125661
4 *2867:4 0.1268045
5 *2867:5 0.05042201
6 *2867:6 0.0801663
7 *2867:7 0.08130983
8 *2867:8 0.1012317
9 *2867:9 0.0490307
10 *2867:10 0.01355556
11 *2867:11 0.01241203

*RES
0 *474:Y *2867:11 1
1 *2867:4 *2867:3 4.566072
2 *2867:5 *2867:4 0.5
3 *2867:3 *164:A2 1
4 *2867:7 *2867:6 2.394643
5 *2867:8 *2867:7 0.5
6 *2867:8 *2867:5 2.690179
7 *2867:6 *475:A3 1
8 *2867:10 *2867:9 0.5
9 *2867:9 *2867:8 2.147322
10 *2867:11 *2867:10 0.2325

*END

*D_NET *2870 0.8613408 //LENGTH 9.106 LUMPCC 0 DR

*CONN
*I *480:Y O *L 0 *C 46.952 33.576
*I *164:A5 I *L 0.532504 *C 45.736 26.128
*N *2870:2 *C 45.736 26.142
*N *2870:3 *C 45.736 26.571
*N *2870:4 *C 45.750 26.584
*N *2870:5 *C 46.787 26.584
*N *2870:6 *C 46.800 26.598
*N *2870:7 *C 46.800 32.360
*N *2870:8 *C 46.952 32.360
*N *2870:9 *C 46.952 33.562

*CAP
0 *480:Y 0.001
1 *164:A5 0.001
2 *2870:2 0.02751695
3 *2870:3 0.02866048
4 *2870:4 0.04004063
5 *2870:5 0.04004063
6 *2870:6 0.3002253
7 *2870:7 0.3085506
8 *2870:8 0.06176798
9 *2870:9 0.05253825

*RES
0 *480:Y *2870:9 1
1 *2870:2 *164:A5 1
2 *2870:3 *2870:2 0.7660714
3 *2870:4 *2870:3 0.5
4 *2870:6 *2870:5 0.5
5 *2870:5 *2870:4 1.851786
6 *2870:9 *2870:8 2.147322
7 *2870:7 *2870:6 10.29018
8 *2870:8 *2870:7 0.2714286

*END

*D_NET *2874 0.6027695 //LENGTH 6.485 LUMPCC 0 DR

*CONN
*I *442:Y O *L 0 *C 43.586 37.528
*I *165:A2 I *L 0.509119 *C 43.456 35.704
*I *486:A I *L 0.582888 *C 43.000 34.184
*I *487:A4 I *L 0.514778 *C 41.176 34.336
*N *2874:4 *C 41.176 34.335
*N *2874:5 *C 41.176 34.198
*N *2874:6 *C 41.190 34.184
*N *2874:7 *C 42.986 34.184
*N *2874:8 *C 43.000 34.198
*N *2874:9 *C 43.000 35.691
*N *2874:10 *C 43.014 35.704
*N *2874:11 *C 43.443 35.704
*N *2874:12 *C 43.456 35.718
*N *2874:13 *C 43.456 37.515
*N *2874:14 *C 43.468 37.528

*CAP
0 *442:Y 0.01148078
1 *165:A2 0.001
2 *486:A 0.001
3 *487:A4 0.001
4 *2874:4 0.01089267
5 *2874:5 0.0120362
6 *2874:6 0.07666434
7 *2874:7 0.07666434
8 *2874:8 0.06754439
9 *2874:9 0.07046696
10 *2874:10 0.01772154
11 *2874:11 0.01772154
12 *2874:12 0.1127913
13 *2874:13 0.1158988
14 *2874:14 0.009886655

*RES
0 *442:Y *2874:14 0.195
1 *2874:14 *2874:13 1
2 *2874:13 *2874:12 3.208929
3 *2874:12 *165:A2 1
4 *2874:12 *2874:11 0.5
5 *2874:11 *2874:10 0.7660714
6 *2874:9 *2874:8 2.666071
7 *2874:10 *2874:9 0.5
8 *2874:8 *486:A 1
9 *2874:8 *2874:7 0.5
10 *2874:7 *2874:6 3.208929
11 *2874:5 *2874:4 0.2455357
12 *2874:6 *2874:5 0.5
13 *2874:4 *487:A4 1

*END

*D_NET *2878 0.2362716 //LENGTH 2.348 LUMPCC 0 DR

*CONN
*I *488:Y O *L 0 *C 42.696 40.720
*I *489:A2 I *L 0.515513 *C 42.741 38.592
*N *2878:2 *C 42.696 38.592
*N *2878:3 *C 42.696 38.605
*N *2878:4 *C 42.696 40.707

*CAP
0 *488:Y 0.001
1 *489:A2 0.009391633
2 *2878:2 0.007797507
3 *2878:3 0.1097055
4 *2878:4 0.108377

*RES
0 *488:Y *2878:4 1
1 *2878:2 *489:A2 0.09166668
2 *2878:3 *2878:2 1
3 *2878:4 *2878:3 3.751786

*END

*D_NET *2879 0.1338554 //LENGTH 1.551 LUMPCC 0 DR

*CONN
*I *491:Y O *L 0 *C 42.240 46.040
*I *492:A4 I *L 0.514778 *C 43.000 45.888
*N *2879:2 *C 43.000 45.876
*N *2879:3 *C 43.000 45.736
*N *2879:4 *C 42.986 45.736
*N *2879:5 *C 42.254 45.736
*N *2879:6 *C 42.240 45.750
*N *2879:7 *C 42.240 46.027

*CAP
0 *491:Y 0.001
1 *492:A4 0.001
2 *2879:2 0.01039462
3 *2879:3 0.01153815
4 *2879:4 0.03727053
5 *2879:5 0.03727053
6 *2879:6 0.01826253
7 *2879:7 0.017119

*RES
0 *491:Y *2879:7 1
1 *2879:2 *492:A4 1
2 *2879:3 *2879:2 0.2325
3 *2879:4 *2879:3 0.5
4 *2879:6 *2879:5 0.5
5 *2879:5 *2879:4 1.308929
6 *2879:7 *2879:6 0.4946429

*END

*D_NET *2881 0.7315571 //LENGTH 7.584 LUMPCC 0 DR

*CONN
*I *490:Y O *L 0 *C 46.344 43.152
*I *493:A2 I *L 0.501039 *C 45.584 45.736
*I *495:A6 I *L 0.639573 *C 43.152 42.240
*N *2881:3 *C 43.152 42.254
*N *2881:4 *C 43.152 43.595
*N *2881:5 *C 43.166 43.608
*N *2881:6 *C 45.584 45.723
*N *2881:7 *C 45.584 43.622
*N *2881:8 *C 45.584 43.608
*N *2881:9 *C 46.331 43.608
*N *2881:10 *C 46.344 43.595
*N *2881:11 *C 46.344 43.166

*CAP
0 *490:Y 0.001
1 *493:A2 0.001
2 *495:A6 0.001
3 *2881:3 0.07164823
4 *2881:4 0.07279175
5 *2881:5 0.1057798
6 *2881:6 0.1185758
7 *2881:7 0.1197193
8 *2881:8 0.1387807
9 *2881:9 0.03122188
10 *2881:10 0.03557145
11 *2881:11 0.03446823

*RES
0 *490:Y *2881:11 1
1 *2881:10 *2881:9 0.5
2 *2881:9 *2881:8 1.333036
3 *2881:11 *2881:10 0.7660716
4 *2881:7 *2881:6 3.751786
5 *2881:8 *2881:7 0.5
6 *2881:8 *2881:5 4.31875
7 *2881:6 *493:A2 1
8 *2881:4 *2881:3 2.394643
9 *2881:5 *2881:4 0.5
10 *2881:3 *495:A6 1

*END

*D_NET *2885 0.6789453 //LENGTH 8.294 LUMPCC 0 DR

*CONN
*I *410:QN O *L 0 *C 34.944 27.952
*I *424:A2 I *L 0.499019 *C 40.112 29.016
*I *426:A2 I *L 0.466516 *C 40.872 29.320
*N *2885:3 *C 40.872 29.319
*N *2885:4 *C 40.872 28.422
*N *2885:5 *C 40.858 28.408
*N *2885:6 *C 40.112 29.003
*N *2885:7 *C 40.112 28.422
*N *2885:8 *C 40.112 28.408
*N *2885:9 *C 34.958 28.408
*N *2885:10 *C 34.944 28.395
*N *2885:11 *C 34.944 27.953

*CAP
0 *410:QN 0.001
1 *424:A2 0.001
2 *426:A2 0.001
3 *2885:3 0.03889084
4 *2885:4 0.03990153
5 *2885:5 0.03521704
6 *2885:6 0.04468717
7 *2885:7 0.0458307
8 *2885:8 0.2349548
9 *2885:9 0.1979587
10 *2885:10 0.01982407
11 *2885:11 0.01868054

*RES
0 *410:QN *2885:11 1
1 *2885:4 *2885:3 1.602679
2 *2885:5 *2885:4 0.5
3 *2885:3 *426:A2 1
4 *2885:7 *2885:6 1.0375
5 *2885:8 *2885:7 0.5
6 *2885:8 *2885:5 1.333036
7 *2885:6 *424:A2 1
8 *2885:10 *2885:9 0.5
9 *2885:9 *2885:8 9.204464
10 *2885:11 *2885:10 0.788393

*END

*D_NET *2887 0.7451288 //LENGTH 7.852 LUMPCC 0 DR

*CONN
*I *416:QN O *L 0 *C 37.224 38.896
*I *444:A3 I *L 0.584801 *C 41.328 37.680
*I *489:A3 I *L 0.539281 *C 42.392 39.048
*N *2887:3 *C 42.392 39.035
*N *2887:4 *C 42.392 38.454
*N *2887:5 *C 42.379 38.440
*N *2887:6 *C 41.328 38.440
*N *2887:7 *C 41.328 37.694
*N *2887:8 *C 41.328 38.730
*N *2887:9 *C 41.328 38.743
*N *2887:10 *C 37.238 38.744
*N *2887:11 *C 37.224 38.758
*N *2887:12 *C 37.224 38.895

*CAP
0 *416:QN 0.001
1 *444:A3 0.001
2 *489:A3 0.001
3 *2887:3 0.03380454
4 *2887:4 0.03494808
5 *2887:5 0.04559244
6 *2887:6 0.05790491
7 *2887:7 0.06816696
8 *2887:8 0.06931048
9 *2887:9 0.2135117
10 *2887:10 0.2029782
11 *2887:11 0.008527491
12 *2887:12 0.00738396

*RES
0 *416:QN *2887:12 1
1 *2887:4 *2887:3 1.0375
2 *2887:5 *2887:4 0.5
3 *2887:3 *489:A3 1
4 *2887:8 *2887:7 1.851786
5 *2887:9 *2887:8 0.5
6 *2887:9 *2887:6 0.5410715
7 *2887:7 *444:A3 1
8 *2887:11 *2887:10 0.5
9 *2887:10 *2887:9 7.304464
10 *2887:12 *2887:11 0.2455357
11 *2887:6 *2887:5 1.875893

*END

*D_NET *2890 0.2532099 //LENGTH 2.694 LUMPCC 0 DR

*CONN
*I *417:QN O *L 0 *C 40.568 35.552
*I *444:A4 I *L 0.565045 *C 41.146 37.553
*N *2890:2 *C 40.583 37.528
*N *2890:3 *C 40.568 37.515
*N *2890:4 *C 40.568 35.553

*CAP
0 *417:QN 0.001
1 *444:A4 0.0311522
2 *2890:2 0.02955808
3 *2890:3 0.09641407
4 *2890:4 0.09508564

*RES
0 *417:QN *2890:4 1
1 *2890:2 *444:A4 1.126
2 *2890:3 *2890:2 1
3 *2890:4 *2890:3 3.502679

*END

*D_NET *2892 0.05279233 //LENGTH 0.396 LUMPCC 0 DR

*CONN
*I *413:QN O *L 0 *C 40.902 46.040
*I *491:A3 I *L 0.456834 *C 41.298 46.064

*CAP
0 *413:QN 0.02639617
1 *491:A3 0.02639617

*RES
0 *413:QN *491:A3 0.7920001

*END

*D_NET *2893 0.1470447 //LENGTH 1.805 LUMPCC 0 DR

*CONN
*I *418:QN O *L 0 *C 40.264 34.640
*I *487:A3 I *L 0.539281 *C 41.480 34.488
*N *2893:2 *C 41.480 34.306
*N *2893:3 *C 41.480 34.476
*N *2893:4 *C 41.467 34.488
*N *2893:5 *C 40.278 34.488
*N *2893:6 *C 40.264 34.502
*N *2893:7 *C 40.264 34.639

*CAP
0 *418:QN 0.001
1 *487:A3 0.001
2 *2893:2 0.01707987
3 *2893:3 0.01237827
4 *2893:4 0.05012889
5 *2893:5 0.05012889
6 *2893:6 0.008236146
7 *2893:7 0.007092614

*RES
0 *418:QN *2893:7 1
1 *2893:3 *487:A3 1
2 *2893:3 *2893:2 0.2825
3 *2893:4 *2893:3 0.5
4 *2893:6 *2893:5 0.5
5 *2893:5 *2893:4 2.123214
6 *2893:7 *2893:6 0.2455357

*END

*D_NET *2896 1.267674 //LENGTH 14.408 LUMPCC 0 DR

*CONN
*I *416:Q O *L 0 *C 37.376 39.048
*I *442:A1 I *L 0.666174 *C 43.760 37.680
*I *320:A4 I *L 0.513828 *C 46.040 35.856
*I *489:A1 I *L 0.484201 *C 43.000 39.352
*N *2896:4 *C 43.000 39.339
*N *2896:5 *C 46.040 35.870
*N *2896:6 *C 46.040 38.123
*N *2896:7 *C 46.027 38.136
*N *2896:8 *C 43.760 37.694
*N *2896:9 *C 43.760 38.123
*N *2896:10 *C 43.760 38.136
*N *2896:11 *C 43.014 38.136
*N *2896:12 *C 43.000 38.150
*N *2896:13 *C 43.000 38.744
*N *2896:14 *C 42.986 38.744
*N *2896:15 *C 42.406 38.744
*N *2896:16 *C 42.392 38.758
*N *2896:17 *C 42.392 39.339
*N *2896:18 *C 42.379 39.352
*N *2896:19 *C 37.390 39.352
*N *2896:20 *C 37.376 39.339
*N *2896:21 *C 37.376 39.062

*CAP
0 *416:Q 0.001
1 *442:A1 0.001
2 *320:A4 0.001
3 *489:A1 0.001
4 *2896:4 0.0335964
5 *2896:5 0.1208888
6 *2896:6 0.1220323
7 *2896:7 0.09053806
8 *2896:8 0.02926748
9 *2896:9 0.03041102
10 *2896:10 0.1233938
11 *2896:11 0.03107673
12 *2896:12 0.02976423
13 *2896:13 0.0662832
14 *2896:14 0.03191238
15 *2896:15 0.03191248
16 *2896:16 0.02105039
17 *2896:17 0.02105039
18 *2896:18 0.2254887
19 *2896:19 0.2254886
20 *2896:20 0.01533118
21 *2896:21 0.01418765

*RES
0 *416:Q *2896:21 1
1 *2896:6 *2896:5 4.023215
2 *2896:7 *2896:6 0.5
3 *2896:5 *320:A4 1
4 *2896:9 *2896:8 0.7660715
5 *2896:10 *2896:9 0.5
6 *2896:10 *2896:7 4.047321
7 *2896:8 *442:A1 1
8 *2896:4 *489:A1 1
9 *2896:12 *2896:11 0.5
10 *2896:11 *2896:10 1.333036
11 *2896:13 *2896:12 1.061607
12 *2896:13 *2896:4 1.061607
13 *2896:14 *2896:13 0.5
14 *2896:15 *2896:14 1.0375
15 *2896:16 *2896:15 0.5
16 *2896:18 *2896:17 0.5
17 *2896:17 *2896:16 1.0375
18 *2896:20 *2896:19 0.5
19 *2896:19 *2896:18 8.908929
20 *2896:21 *2896:20 0.4946429

*END

*D_NET *2900 1.789286 //LENGTH 19.683 LUMPCC 0 DR

*CONN
*I *410:Q O *L 0 *C 35.096 27.800
*I *419:A1 I *L 0.530735 *C 41.632 27.496
*I *427:A1 I *L 0.610599 *C 41.328 30.840
*I *425:A2 I *L 0.509119 *C 40.568 31.144
*I *473:A1 I *L 0.549073 *C 43.152 29.016
*I *471:A3 I *L 0.634415 *C 46.648 31.144
*N *2900:6 *C 35.096 27.618
*N *2900:7 *C 46.648 31.131
*N *2900:8 *C 46.648 30.550
*N *2900:9 *C 46.635 30.536
*N *2900:10 *C 43.152 29.017
*N *2900:11 *C 43.152 30.523
*N *2900:12 *C 43.152 30.536
*N *2900:13 *C 40.568 31.131
*N *2900:14 *C 40.568 30.550
*N *2900:15 *C 40.582 30.536
*N *2900:16 *C 41.328 30.827
*N *2900:17 *C 41.328 30.550
*N *2900:18 *C 41.328 30.536
*N *2900:19 *C 41.632 30.536
*N *2900:20 *C 41.632 30.523
*N *2900:21 *C 41.632 27.510
*N *2900:22 *C 41.632 27.800
*N *2900:23 *C 41.619 27.800
*N *2900:24 *C 35.110 27.800
*N *2900:25 *C 35.096 27.788

*CAP
0 *410:Q 0.001
1 *419:A1 0.001
2 *427:A1 0.001
3 *425:A2 0.001
4 *473:A1 0.001
5 *471:A3 0.001
6 *2900:6 0.012437
7 *2900:7 0.03741924
8 *2900:8 0.03856277
9 *2900:9 0.1265462
10 *2900:10 0.09866723
11 *2900:11 0.09981076
12 *2900:12 0.1785673
13 *2900:13 0.03197158
14 *2900:14 0.03311512
15 *2900:15 0.02913933
16 *2900:16 0.02314846
17 *2900:17 0.02429199
18 *2900:18 0.04055328
19 *2900:19 0.06165601
20 *2900:20 0.164308
21 *2900:21 0.01685641
22 *2900:22 0.1840869
23 *2900:23 0.2872064
24 *2900:24 0.2872064
25 *2900:25 0.0077354

*RES
0 *410:Q *2900:25 1
1 *2900:8 *2900:7 1.0375
2 *2900:9 *2900:8 0.5
3 *2900:7 *471:A3 1
4 *2900:11 *2900:10 2.688393
5 *2900:12 *2900:11 0.5
6 *2900:12 *2900:9 6.21875
7 *2900:10 *473:A1 1
8 *2900:20 *2900:19 0.5
9 *2900:19 *2900:18 0.5428572
10 *2900:19 *2900:12 2.714286
11 *2900:21 *419:A1 1
12 *2900:17 *2900:16 0.4946429
13 *2900:18 *2900:17 0.5
14 *2900:18 *2900:15 1.333036
15 *2900:16 *427:A1 1
16 *2900:14 *2900:13 1.0375
17 *2900:15 *2900:14 0.5
18 *2900:13 *425:A2 1
19 *2900:22 *2900:21 0.5187501
20 *2900:22 *2900:20 4.861608
21 *2900:23 *2900:22 0.5
22 *2900:25 *2900:24 0.5
23 *2900:25 *2900:6 0.2825
24 *2900:24 *2900:23 11.62321

*END

*D_NET *2904 2.030562 //LENGTH 24.863 LUMPCC 0 DR

*CONN
*I *497:Q O *L 0 *C 32.664 44.520
*I *169:A3 I *L 0.539281 *C 46.192 44.520
*I *494:A1 I *L 0.545966 *C 45.432 42.696
*I *431:A1 I *L 0.549073 *C 47.256 41.176
*I *432:A1 I *L 0.666174 *C 41.328 42.544
*I *491:A1 I *L 0.545966 *C 41.632 46.040
*N *2904:6 *C 32.664 44.338
*N *2904:7 *C 41.632 46.027
*N *2904:8 *C 41.632 45.750
*N *2904:9 *C 41.619 45.736
*N *2904:10 *C 41.342 45.736
*N *2904:11 *C 41.328 45.723
*N *2904:12 *C 41.328 42.558
*N *2904:13 *C 47.256 41.044
*N *2904:14 *C 47.256 41.163
*N *2904:15 *C 47.242 41.176
*N *2904:16 *C 45.446 41.176
*N *2904:17 *C 45.432 41.190
*N *2904:18 *C 45.432 42.696
*N *2904:19 *C 46.192 44.507
*N *2904:20 *C 46.192 42.710
*N *2904:21 *C 46.178 42.696
*N *2904:22 *C 45.432 42.696
*N *2904:23 *C 45.432 42.999
*N *2904:24 *C 45.432 43.000
*N *2904:25 *C 45.432 43.291
*N *2904:26 *C 45.419 43.304
*N *2904:27 *C 41.342 43.304
*N *2904:28 *C 41.328 43.304
*N *2904:29 *C 41.328 44.520
*N *2904:30 *C 41.315 44.520
*N *2904:31 *C 32.678 44.520
*N *2904:32 *C 32.664 44.508

*CAP
0 *497:Q 0.001
1 *169:A3 0.001
2 *494:A1 0.001
3 *431:A1 0.001
4 *432:A1 0.001
5 *491:A1 0.001
6 *2904:6 0.01384269
7 *2904:7 0.01911964
8 *2904:8 0.02026318
9 *2904:9 0.01621832
10 *2904:10 0.01621832
11 *2904:11 0.06136807
12 *2904:12 0.04409
13 *2904:13 0.01262976
14 *2904:14 0.006445635
15 *2904:15 0.06838888
16 *2904:16 0.0698714
17 *2904:17 0.06775931
18 *2904:18 0.0798786
19 *2904:19 0.09465969
20 *2904:20 0.09580321
21 *2904:21 0.02825139
22 *2904:22 0.04060255
23 *2904:23 0.008793092
24 *2904:24 0.02977055
25 *2904:25 0.01650773
26 *2904:26 0.1746827
27 *2904:27 0.1746827
28 *2904:28 0.1079843
29 *2904:29 0.1241189
30 *2904:30 0.3117353
31 *2904:31 0.3117353
32 *2904:32 0.009141091

*RES
0 *497:Q *2904:32 1
1 *2904:24 *2904:23 0.5
2 *2904:24 *2904:18 0.5428572
3 *2904:23 *2904:22 0.5410715
4 *2904:20 *2904:19 3.208929
5 *2904:21 *2904:20 0.5
6 *2904:19 *169:A3 1
7 *2904:18 *494:A1 1
8 *2904:18 *2904:17 2.690179
9 *2904:17 *2904:16 0.5
10 *2904:16 *2904:15 3.208929
11 *2904:14 *431:A1 1
12 *2904:14 *2904:13 0.1991667
13 *2904:15 *2904:14 0.5
14 *2904:11 *2904:10 0.5
15 *2904:10 *2904:9 0.4946429
16 *2904:8 *2904:7 0.4946429
17 *2904:9 *2904:8 0.5
18 *2904:7 *491:A1 1
19 *2904:25 *2904:24 0.5187501
20 *2904:26 *2904:25 0.5
21 *2904:28 *2904:27 0.5
22 *2904:28 *2904:12 1.333036
23 *2904:27 *2904:26 7.280358
24 *2904:12 *432:A1 1
25 *2904:29 *2904:28 2.171429
26 *2904:29 *2904:11 2.147322
27 *2904:30 *2904:29 0.5
28 *2904:32 *2904:31 0.5
29 *2904:32 *2904:6 0.2825
30 *2904:31 *2904:30 15.42322
31 *2904:22 *2904:21 1.333036

*END

*D_NET *2913 0.2842272 //LENGTH 3.654 LUMPCC 0 DR

*CONN
*I *201:Y O *L 0 *C 47.104 12.752
*I *202:A5 I *L 0.557577 *C 45.280 14.120
*N *2913:2 *C 45.280 13.938
*N *2913:3 *C 45.280 14.107
*N *2913:4 *C 45.294 14.120
*N *2913:5 *C 47.091 14.120
*N *2913:6 *C 47.104 14.107
*N *2913:7 *C 47.104 12.766

*CAP
0 *201:Y 0.001
1 *202:A5 0.001
2 *2913:2 0.01764051
3 *2913:3 0.01293891
4 *2913:4 0.07114426
5 *2913:5 0.07114426
6 *2913:6 0.05525139
7 *2913:7 0.05410785

*RES
0 *201:Y *2913:7 1
1 *2913:3 *202:A5 1
2 *2913:3 *2913:2 0.2825
3 *2913:4 *2913:3 0.5
4 *2913:6 *2913:5 0.5
5 *2913:5 *2913:4 3.208929
6 *2913:7 *2913:6 2.394643

*END

*D_NET *2916 0.3567112 //LENGTH 4.591 LUMPCC 0 DR

*CONN
*I *274:Y O *L 0 *C 33.424 14.272
*I *80:A4 I *L 0.443333 *C 32.360 17.464
*N *2916:2 *C 32.360 17.451
*N *2916:3 *C 32.360 14.438
*N *2916:4 *C 32.373 14.424
*N *2916:5 *C 33.410 14.424
*N *2916:6 *C 33.424 14.412
*N *2916:7 *C 33.424 14.272

*CAP
0 *274:Y 0.001
1 *80:A4 0.001
2 *2916:2 0.1308009
3 *2916:3 0.1319444
4 *2916:4 0.03704273
5 *2916:5 0.03704273
6 *2916:6 0.009511963
7 *2916:7 0.008368432

*RES
0 *274:Y *2916:7 1
1 *2916:2 *80:A4 1
2 *2916:3 *2916:2 5.380358
3 *2916:4 *2916:3 0.5
4 *2916:6 *2916:5 0.5
5 *2916:5 *2916:4 1.851786
6 *2916:7 *2916:6 0.2325

*END

*D_NET *2919 0.5277336 //LENGTH 5.630 LUMPCC 0 DR

*CONN
*I *80:Y O *L 0 *C 33.272 18.224
*I *105:A2 I *L 0.45541 *C 29.168 19.288
*N *2919:2 *C 29.168 19.106
*N *2919:3 *C 29.168 19.276
*N *2919:4 *C 29.181 19.288
*N *2919:5 *C 33.259 19.288
*N *2919:6 *C 33.272 19.274
*N *2919:7 *C 33.272 18.238

*CAP
0 *80:Y 0.001
1 *105:A2 0.001
2 *2919:2 0.01582642
3 *2919:3 0.01112482
4 *2919:4 0.1801247
5 *2919:5 0.1801247
6 *2919:6 0.06958236
7 *2919:7 0.06895078

*RES
0 *80:Y *2919:7 1
1 *2919:3 *105:A2 1
2 *2919:3 *2919:2 0.2825
3 *2919:4 *2919:3 0.5
4 *2919:6 *2919:5 0.5
5 *2919:5 *2919:4 7.280358
6 *2919:7 *2919:6 1.851786

*END

